 vasp.5.4.4.18Apr17-6-g9f103f2a35 (build Apr 11 2019 18:12:45) complex

 executed on             LinuxIFC date 2019.11.13  17:46:11

 INCAR:
 POTCAR:   PAW_PBE C 08Apr2002
 POTCAR:    PAW_PBE Na_pv 19Sep2006

 POTCAR:   PAW_PBE C 08Apr2002
   VRHFIN =C: s2p2

   TITEL  = PAW_PBE C 08Apr2002
   POMASS =   12.011; ZVAL   =    4.000    mass and valenz
   ENMAX  =  400.000; ENMIN  =  300.000 eV
   QCUT   =   -5.516; QGAM   =   11.032    optimization parameters

   Description
     l     E      TYP  RCUT    TYP  RCUT
     0   .000     23  1.200
     0   .000     23  1.200
     1   .000     23  1.500
     1  2.500     23  1.500
     2   .000      7  1.500

 POTCAR:    PAW_PBE Na_pv 19Sep2006
   VRHFIN =Na: p6s1

   TITEL  = PAW_PBE Na_pv 19Sep2006
   POMASS =   22.990; ZVAL   =    7.000    mass and valenz
   ENMAX  =  259.561; ENMIN  =  194.671 eV
   QCUT   =   -4.368; QGAM   =    8.735    optimization parameters

   Description
     l     E      TYP  RCUT    TYP  RCUT
     1   .000     23  2.000
     1   .500     23  2.000
     0   .000     23  2.200
     0  2.500     23  2.200
     2  -.100     23  2.200

 Optimization of the real space projectors (new method)

 maximal supplied QI-value         = 25.13
 optimisation between [QCUT,QGAM] = [ 11.31, 28.40] = [ 35.82,225.87] Ry
 Optimized for a Real-space Cutoff    0.93 Angstroem

   l    n(q)    QCUT    max X(q) W(low)/X(q) W(high)/X(q)  e(spline)
   0      8    11.310     5.582    0.36E-04    0.13E-04    0.14E-07
   0      8    11.310    69.432    0.28E-03    0.21E-03    0.11E-06
   1      7    11.310     2.780    0.37E-04    0.49E-04    0.22E-07
   1      7    11.310     4.549    0.27E-03    0.38E-03    0.91E-07
 Optimization of the real space projectors (new method)

 maximal supplied QI-value         = 17.01
 optimisation between [QCUT,QGAM] = [ 11.40, 28.57] = [ 36.36,228.61] Ry
 Optimized for a Real-space Cutoff    1.25 Angstroem

   l    n(q)    QCUT    max X(q) W(low)/X(q) W(high)/X(q)  e(spline)
   1     10    11.395     4.977    0.23E-05    0.17E-05    0.20E-07
   1     10    11.395     7.312    0.34E-03    0.16E-03    0.87E-06
   0     11    11.395    36.258    0.15E-04    0.97E-06    0.30E-07
   0     11    11.395    45.649    0.12E-04    0.89E-05    0.80E-07
 PAW_PBE C 08Apr2002                    :
  PAW_PBE Na_pv 19Sep2006               :

 POSCAR: graphene+Na
  positions in direct lattice
  velocities in cartesian coordinates
 exchange correlation table for  LEXCH =        8
   RHO(1)=    0.500       N(1)  =     2000
   RHO(2)=  100.500       N(2)  =     4000

 ion  position               nearest neighbor table
   1  0.166  0.083  0.500-  29 1.42  18 1.42  17 1.43
   2  0.417  0.083  0.500-  30 1.42  18 1.42  19 1.43
   3  0.667  0.083  0.500-  19 1.42  31 1.42  20 1.42
   4  0.917  0.083  0.500-  17 1.42  32 1.42  20 1.42
   5  0.166  0.333  0.500-  17 1.42  21 1.42  22 1.43
   6  0.416  0.333  0.499-  18 1.43  22 1.43  23 1.43
   7  0.667  0.333  0.500-  24 1.42  19 1.42  23 1.43
   8  0.917  0.333  0.500-  24 1.42  21 1.42  20 1.42
   9  0.166  0.583  0.500-  25 1.42  26 1.42  21 1.43
  10  0.416  0.584  0.499-  26 1.43  27 1.43  22 1.43
  11  0.667  0.584  0.499-  28 1.43  27 1.43  23 1.43
  12  0.917  0.583  0.500-  25 1.42  28 1.42  24 1.43
  13  0.167  0.833  0.500-  25 1.42  29 1.42  30 1.42
  14  0.417  0.834  0.500-  30 1.42  26 1.42  31 1.43
  15  0.667  0.834  0.500-  32 1.42  31 1.42  27 1.43
  16  0.917  0.834  0.500-  29 1.42  28 1.42  32 1.43
  17  0.083  0.166  0.500-   4 1.42   5 1.42   1 1.43
  18  0.333  0.166  0.500-   2 1.42   1 1.42   6 1.43
  19  0.583  0.166  0.500-   3 1.42   7 1.42   2 1.43
  20  0.833  0.167  0.500-   3 1.42   4 1.42   8 1.42
  21  0.083  0.417  0.500-   8 1.42   5 1.42   9 1.43
  22  0.333  0.416  0.499-   5 1.43   6 1.43  10 1.43
  23  0.584  0.416  0.499-   7 1.43  11 1.43   6 1.43
  24  0.834  0.417  0.500-   8 1.42   7 1.42  12 1.43
  25  0.083  0.667  0.500-   9 1.42  12 1.42  13 1.42
  26  0.333  0.667  0.500-  14 1.42   9 1.42  10 1.43
  27  0.584  0.667  0.499-  15 1.43  11 1.43  10 1.43
  28  0.834  0.667  0.500-  12 1.42  16 1.42  11 1.43
  29  0.083  0.917  0.500-   1 1.42  16 1.42  13 1.42
  30  0.333  0.917  0.500-  14 1.42   2 1.42  13 1.42
  31  0.583  0.917  0.500-   3 1.42  15 1.42  14 1.43
  32  0.834  0.917  0.500-   4 1.42  15 1.42  16 1.43
  33  0.500  0.500  0.615-

  LATTYP: Found a hexagonal cell.
 ALAT       =     9.8742351532
 C/A-ratio  =     2.0254733344

  Lattice vectors:

 A1 = (   9.8742351532,   0.0000000000,   0.0000000000)
 A2 = (  -4.9371175766,   8.5513384856,   0.0000000000)
 A3 = (   0.0000000000,   0.0000000000,  20.0000000000)

Analysis of symmetry for initial positions (statically):
 Subroutine PRICEL returns:
 Original cell was already a primitive cell.

 Routine SETGRP: Setting up the symmetry group for a
 hexagonal supercell.

 Subroutine GETGRP returns: Found  1 space group operations
 (whereof  1 operations were pure point group operations)
 out of a pool of 24 trial point group operations.

The static configuration has the point symmetry C_1 .

Analysis of symmetry for dynamics (positions and initial velocities):
 Subroutine PRICEL returns:
 Original cell was already a primitive cell.

[...]

The dynamic configuration has the point symmetry C_1 .

Analysis of constrained symmetry for selective dynamics:
 Subroutine PRICEL returns:
 Original cell was already a primitive cell.

[...]

The constrained configuration has the point symmetry C_1 .

Analysis of structural, dynamic, and magnetic symmetry:
 Subroutine PRICEL returns:
 Original cell was already a primitive cell.

 Routine SETGRP: Setting up the symmetry group for a
 hexagonal supercell.

 Subroutine GETGRP returns: Found  1 space group operations
 (whereof  1 operations were pure point group operations)
 out of a pool of 24 trial point group operations.

The magnetic configuration has the point symmetry C_1 .

 Subroutine INISYM returns: Found  1 space group operations
 (whereof  1 operations are pure point group operations),
 and found     1 'primitive' translations

 KPOINTS: Automatic mesh

Automatic generation of k-mesh.
Space group operators:
 irot       det(A)        alpha          n_x          n_y          n_z        tau_x        tau_y        tau_z
    1     1.000000     0.000000     1.000000     0.000000     0.000000     0.000000     0.000000     0.000000

 Subroutine IBZKPT returns following result:

 Found     41 irreducible k-points:

 Following reciprocal coordinates:
            Coordinates               Weight
  0.000000  0.000000  0.000000      1.000000
  0.111111  0.000000  0.000000      2.000000
  0.222222  0.000000  0.000000      2.000000
  0.333333  0.000000  0.000000      2.000000
  0.444444  0.000000  0.000000      2.000000
  0.000000  0.111111  0.000000      2.000000
  0.111111  0.111111  0.000000      2.000000
  0.222222  0.111111  0.000000      2.000000
  0.333333  0.111111  0.000000      2.000000
  0.444444  0.111111  0.000000      2.000000
 -0.444444  0.111111  0.000000      2.000000
 -0.333333  0.111111  0.000000      2.000000
 -0.222222  0.111111  0.000000      2.000000
 -0.111111  0.111111  0.000000      2.000000
  0.000000  0.222222  0.000000      2.000000
  0.111111  0.222222  0.000000      2.000000
  0.222222  0.222222  0.000000      2.000000
  0.333333  0.222222  0.000000      2.000000
  0.444444  0.222222  0.000000      2.000000
 -0.444444  0.222222  0.000000      2.000000
 -0.333333  0.222222  0.000000      2.000000
 -0.222222  0.222222  0.000000      2.000000
 -0.111111  0.222222  0.000000      2.000000
  0.000000  0.333333  0.000000      2.000000
  0.111111  0.333333  0.000000      2.000000
  0.222222  0.333333  0.000000      2.000000
  0.333333  0.333333  0.000000      2.000000
  0.444444  0.333333  0.000000      2.000000
 -0.444444  0.333333  0.000000      2.000000
 -0.333333  0.333333  0.000000      2.000000
 -0.222222  0.333333  0.000000      2.000000
 -0.111111  0.333333  0.000000      2.000000
  0.000000  0.444444  0.000000      2.000000
  0.111111  0.444444  0.000000      2.000000
  0.222222  0.444444  0.000000      2.000000
  0.333333  0.444444  0.000000      2.000000
  0.444444  0.444444  0.000000      2.000000
 -0.444444  0.444444  0.000000      2.000000
 -0.333333  0.444444  0.000000      2.000000
 -0.222222  0.444444  0.000000      2.000000
 -0.111111  0.444444  0.000000      2.000000

 Following cartesian coordinates:
            Coordinates               Weight
  0.000000  0.000000  0.000000      1.000000
  0.011253  0.006497  0.000000      2.000000
  0.022505  0.012993  0.000000      2.000000
  0.033758  0.019490  0.000000      2.000000
  0.045011  0.025987  0.000000      2.000000
  0.000000  0.012993  0.000000      2.000000
  0.011253  0.019490  0.000000      2.000000
  0.022505  0.025987  0.000000      2.000000
  0.033758  0.032484  0.000000      2.000000
  0.045011  0.038980  0.000000      2.000000
 -0.045011 -0.012993  0.000000      2.000000
 -0.033758 -0.006497  0.000000      2.000000
 -0.022505 -0.000000  0.000000      2.000000
 -0.011253  0.006497  0.000000      2.000000
  0.000000  0.025987  0.000000      2.000000
  0.011253  0.032484  0.000000      2.000000
  0.022505  0.038980  0.000000      2.000000
  0.033758  0.045477  0.000000      2.000000
  0.045011  0.051974  0.000000      2.000000
 -0.045011  0.000000  0.000000      2.000000
 -0.033758  0.006497  0.000000      2.000000
 -0.022505  0.012993  0.000000      2.000000
 -0.011253  0.019490  0.000000      2.000000
  0.000000  0.038980  0.000000      2.000000
  0.011253  0.045477  0.000000      2.000000
  0.022505  0.051974  0.000000      2.000000
  0.033758  0.058470  0.000000      2.000000
  0.045011  0.064967  0.000000      2.000000
 -0.045011  0.012993  0.000000      2.000000
 -0.033758  0.019490  0.000000      2.000000
 -0.022505  0.025987  0.000000      2.000000
 -0.011253  0.032484  0.000000      2.000000
  0.000000  0.051974  0.000000      2.000000
  0.011253  0.058470  0.000000      2.000000
  0.022505  0.064967  0.000000      2.000000
  0.033758  0.071464  0.000000      2.000000
  0.045011  0.077961  0.000000      2.000000
 -0.045011  0.025987  0.000000      2.000000
 -0.033758  0.032484  0.000000      2.000000
 -0.022505  0.038980  0.000000      2.000000
 -0.011253  0.045477  0.000000      2.000000

 SYSTEM =  graphene_metal
 POSCAR =  graphene+Na

 Startparameter for this run:
   NWRITE =      2    write-flag & timer
   PREC   = high      normal or accurate (medium, high low for compatibility)
   ISTART =      1    job   : 0-new  1-cont  2-samecut
   ICHARG =      1    charge: 1-file 2-atom 10-const
   ISPIN  =      2    spin polarized calculation?
   LNONCOLLINEAR =      F non collinear calculations
   LSORBIT =      F    spin-orbit coupling
   INIWAV =      1    electr: 0-lowe 1-rand  2-diag
   LASPH  =      F    aspherical Exc in radial PAW
   METAGGA=      F    non-selfconsistent MetaGGA calc.

 Electronic Relaxation 1
   ENCUT  =  500.0 eV  36.75 Ry    6.06 a.u.  18.00 18.00 36.46*2*pi/ulx,y,z
   ENINI  =  500.0     initial cutoff
   ENAUG  =  644.9 eV  augmentation charge cutoff
   NELM   =    200;   NELMIN=  2; NELMDL=  0     # of ELM steps
[...]
     42      -8.5085      1.00000
     43      -8.5083      1.00000
     44      -8.5016      1.00000
     45      -8.2667      1.00000
     46      -8.1253      1.00000
     47      -8.1250      1.00000
     48      -7.9850      1.00000
     49      -7.9850      1.00000
     50      -7.9491      1.00000
     51      -7.1628      1.00000
     52      -7.1570      1.00000
     53      -7.1569      1.00000
     54      -7.1274      1.00000
     55      -7.1273      1.00000
     56      -7.1059      1.00000
     57      -5.1324      1.00000
     58      -5.1323      1.00000
     59      -5.0281      1.00000
     60      -5.0279      1.00000
[...]
    106       4.6663      0.00000
    107       4.9090      0.00000
    108       4.9767      0.00000
    109       5.0465      0.00000
    110       5.0482      0.00000
    111       5.0488      0.00000
    112       5.0501      0.00000
    113       5.1443      0.00000
    114       5.1448      0.00000
    115       5.1743      0.00000
    116       5.1746      0.00000
    117       5.1758      0.00000
    118       5.1977      0.00000
    119       5.2077      0.00000
    120       5.2082      0.00000

[...]

 spin component 2

[...]

 k-point    41 :      -0.1111    0.4444    0.0000
  band No.  band energies     occupation
      1     -28.1322      1.00000
      2     -28.1322      1.00000
      3     -28.1292      1.00000
      4     -21.3980      1.00000
      5     -21.0581      1.00000
      6     -20.7249      1.00000
      7     -20.2437      1.00000
      8     -19.6032      1.00000
      9     -19.1286      1.00000
     10     -18.9685      1.00000
     11     -18.8005      1.00000
     12     -18.4981      1.00000
     13     -17.8724      1.00000
     14     -17.5785      1.00000
     15     -17.2704      1.00000
     16     -16.7002      1.00000
     17     -16.4530      1.00000
     18     -15.8924      1.00000
     19     -15.4792      1.00000
     20     -14.8589      1.00000
     21     -14.4009      1.00000
     22     -14.2213      1.00000
     23     -14.1131      1.00000
     24     -14.0605      1.00000
     25     -13.4859      1.00000
     26     -13.2737      1.00000
     27     -12.2076      1.00000
     28     -12.0854      1.00000
     29     -11.9430      1.00000
     30     -11.3232      1.00000
     31     -11.3186      1.00000
     32     -10.9764      1.00000
     33     -10.2599      1.00000
     34     -10.2459      1.00000
     35      -9.6181      1.00000
     36      -9.5614      1.00000
     37      -9.3894      1.00000
     38      -9.2748      1.00000
     39      -9.2451      1.00000
     40      -9.1349      1.00000
     41      -8.9472      1.00000
     42      -8.9156      1.00000
     43      -8.7331      1.00000
     44      -8.3495      1.00000
     45      -8.2728      1.00000
     46      -8.2318      1.00000
     47      -8.1751      1.00000
     48      -8.0260      1.00000
     49      -7.9022      1.00000
     50      -7.5896      1.00000
     51      -7.4391      1.00000
     52      -7.1313      1.00000
     53      -6.9105      1.00000
     54      -6.8103      1.00000
     55      -6.7152      1.00000
     56      -6.5380      1.00000
     57      -6.2020      1.00000
     58      -6.1643      1.00000
     59      -6.0395      1.00000
     60      -5.6190      1.00000
[...]
    106       4.4081      0.00000
    107       4.5550      0.00000
    108       4.6113      0.00000
    109       4.7813      0.00000
    110       4.8799      0.00000
    111       4.9679      0.00000
    112       4.9888      0.00000
    113       5.0525      0.00000
    114       5.1437      0.00000
    115       5.2036      0.00000
    116       5.2461      0.00000
    117       5.3165      0.00000
    118       5.3408      0.00000
    119       5.3718      0.00000
    120       5.4013      0.00000

 soft charge-density along one line, spin component           1
         0         1         2         3         4         5         6         7         8         9
 total charge-density along one line

 soft charge-density along one line, spin component           2
         0         1         2         3         4         5         6         7         8         9
 total charge-density along one line

------------------------ aborting loop because EDIFF is reached ----------------------------------------

 total charge

# of ion       s       p       d       tot
    1        0.863   1.787   0.000   2.651
    2        0.863   1.787   0.000   2.651
    3        0.863   1.789   0.000   2.652
    4        0.863   1.789   0.000   2.652
    5        0.863   1.788   0.000   2.651
    6        0.861   1.788   0.000   2.649
    7        0.863   1.788   0.000   2.651
    8        0.863   1.789   0.000   2.652
    9        0.863   1.787   0.000   2.651
   10        0.861   1.788   0.000   2.649
   11        0.861   1.788   0.000   2.649
   12        0.863   1.787   0.000   2.651
   13        0.863   1.786   0.000   2.649
   14        0.863   1.787   0.000   2.651
   15        0.863   1.788   0.000   2.651
   16        0.863   1.787   0.000   2.651
   17        0.863   1.787   0.000   2.651
   18        0.863   1.788   0.000   2.651
   19        0.863   1.787   0.000   2.651
   20        0.863   1.786   0.000   2.649
   21        0.863   1.787   0.000   2.651
   22        0.861   1.788   0.000   2.649
   23        0.861   1.788   0.000   2.649
   24        0.863   1.787   0.000   2.651
   25        0.863   1.789   0.000   2.652
   26        0.863   1.788   0.000   2.651
   27        0.861   1.788   0.000   2.649
   28        0.863   1.788   0.000   2.651
   29        0.863   1.789   0.000   2.652
   30        0.863   1.789   0.000   2.652
   31        0.863   1.787   0.000   2.651
   32        0.863   1.787   0.000   2.651
   33        0.048   5.965   0.000   6.013
tot         27.659  63.178   0.000  90.837

 magnetization (x)

[...]

  FORCE on cell =-STRESS in cart. coord.  units (eV):
  Direction    XX          YY          ZZ          XY          YZ          ZX
  Alpha Z    55.59042    55.59042    55.59042
  Ewald   26221.75407 26221.61439-30603.04900    -0.06816     0.02345    -0.04669
  Hartree 25949.35358 25949.23773-25498.32559    -0.05465     0.01377    -0.02794
  E(xc)    -505.23305  -505.23336  -523.49217    -0.00027     0.00002    -0.00005
  Local  -53584.42719-53584.17122 54416.41436     0.12313    -0.03699     0.07410
  n-local  -136.58856  -136.58868  -128.59598    -0.00005     0.00003    -0.00027
  augment    29.53113    29.53104    30.72203    -0.00008     0.00000    -0.00003
  Kinetic  1973.50015  1973.50036  2250.61496    -0.00000    -0.00024     0.00054
  Fock        0.00000     0.00000     0.00000     0.00000     0.00000     0.00000
  Total       3.48055     3.48068    -0.12095    -0.00007     0.00004    -0.00036
  in kB       3.30210     3.30223    -0.11475    -0.00006     0.00004    -0.00034

 VOLUME and BASIS-vectors are now :
  energy-cutoff  :      500.00
  volume of cell :     1688.76
      direct lattice vectors                 reciprocal lattice vectors
     9.874235153  0.000000000  0.000000000     0.101273667  0.058470379  0.000000000
    -4.937117577  8.551338486  0.000000000     0.000000000  0.116940757  0.000000000
     0.000000000  0.000000000 20.000000000     0.000000000  0.000000000  0.050000000

  length of vectors
     9.874235153  9.874235153 20.000000000     0.116940757  0.116940757  0.050000000

 FORCES acting on ions
    electron-ion (+dipol)            ewald-force                    non-local-force                 convergence-correction
   0.276E+01 0.821E+01 0.148E+02   -.285E+01 -.834E+01 -.150E+02   0.912E-01 0.135E+00 0.134E+00   0.726E-06 0.329E-06 0.453E-04
   -.276E+01 0.821E+01 0.151E+02   0.285E+01 -.834E+01 -.152E+02   -.911E-01 0.135E+00 0.134E+00   -.868E-06 0.414E-06 0.450E-04
   -.172E+01 -.990E+00 0.123E+02   0.178E+01 0.103E+01 -.124E+02   -.525E-01 -.303E-01 0.120E+00   0.479E-06 0.497E-06 0.438E-04
   0.172E+01 -.992E+00 0.114E+02   -.178E+01 0.103E+01 -.115E+02   0.524E-01 -.302E-01 0.865E-01   -.589E-06 0.304E-06 0.437E-04
   0.141E+02 0.814E+01 0.227E+02   -.145E+02 -.836E+01 -.229E+02   0.367E+00 0.212E+00 0.228E+00   0.330E-05 0.185E-05 0.477E-04
   -.224E-02 0.232E+02 0.529E+02   0.188E-02 -.238E+02 -.539E+02   0.242E-03 0.545E+00 0.101E+01   -.293E-06 0.556E-05 0.549E-04
   -.141E+02 0.816E+01 0.209E+02   0.145E+02 -.837E+01 -.211E+02   -.368E+00 0.213E+00 0.172E+00   -.331E-05 0.182E-05 0.480E-04
   -.951E-03 0.198E+01 0.114E+02   0.117E-02 -.206E+01 -.114E+02   0.327E-04 0.606E-01 0.885E-01   -.339E-06 -.858E-06 0.437E-04
   0.849E+01 -.172E+01 0.148E+02   -.865E+01 0.170E+01 -.150E+02   0.162E+00 0.117E-01 0.127E+00   0.617E-06 0.878E-06 0.452E-04
   0.201E+02 -.116E+02 0.526E+02   -.206E+02 0.119E+02 -.536E+02   0.473E+00 -.273E+00 0.101E+01   0.465E-05 -.274E-05 0.546E-04
   -.201E+02 -.116E+02 0.529E+02   0.206E+02 0.119E+02 -.539E+02   -.472E+00 -.273E+00 0.101E+01   -.497E-05 -.265E-05 0.546E-04
   -.849E+01 -.172E+01 0.151E+02   0.865E+01 0.170E+01 -.152E+02   -.162E+00 0.115E-01 0.134E+00   -.729E-06 0.738E-06 0.454E-04
   0.863E-03 -.779E-03 0.116E+02   -.910E-03 0.832E-03 -.117E+02   0.735E-04 -.332E-04 0.104E+00   -.992E-07 -.224E-06 0.435E-04
   0.573E+01 -.650E+01 0.148E+02   -.580E+01 0.664E+01 -.150E+02   0.710E-01 -.146E+00 0.126E+00   -.212E-06 -.950E-06 0.454E-04
   0.130E-02 -.163E+02 0.227E+02   -.137E-02 0.167E+02 -.229E+02   0.102E-04 -.424E+00 0.227E+00   0.266E-07 -.380E-05 0.480E-04
   -.573E+01 -.650E+01 0.148E+02   0.580E+01 0.664E+01 -.150E+02   -.710E-01 -.146E+00 0.134E+00   0.177E-06 -.774E-06 0.452E-04
   0.573E+01 0.650E+01 0.149E+02   -.580E+01 -.664E+01 -.150E+02   0.713E-01 0.146E+00 0.137E+00   -.843E-07 0.102E-05 0.452E-04
   0.161E-02 0.163E+02 0.228E+02   -.194E-02 -.167E+02 -.230E+02   -.207E-03 0.424E+00 0.224E+00   -.149E-06 0.381E-05 0.478E-04
   -.574E+01 0.650E+01 0.147E+02   0.580E+01 -.664E+01 -.148E+02   -.710E-01 0.146E+00 0.140E+00   0.421E-06 0.671E-06 0.451E-04
   -.639E-03 -.370E-03 0.115E+02   0.702E-03 0.440E-03 -.116E+02   -.750E-04 0.551E-04 0.110E+00   -.306E-06 0.866E-07 0.432E-04
   0.849E+01 0.172E+01 0.147E+02   -.865E+01 -.171E+01 -.149E+02   0.162E+00 -.115E-01 0.132E+00   0.981E-06 -.675E-06 0.455E-04
   0.201E+02 0.116E+02 0.527E+02   -.206E+02 -.119E+02 -.537E+02   0.472E+00 0.273E+00 0.100E+01   0.468E-05 0.271E-05 0.548E-04
   -.202E+02 0.116E+02 0.526E+02   0.206E+02 -.119E+02 -.536E+02   -.473E+00 0.273E+00 0.102E+01   -.483E-05 0.259E-05 0.545E-04
   -.850E+01 0.172E+01 0.146E+02   0.866E+01 -.170E+01 -.148E+02   -.162E+00 -.117E-01 0.150E+00   -.419E-06 -.558E-06 0.453E-04
   0.154E-02 -.198E+01 0.122E+02   -.172E-02 0.206E+01 -.123E+02   -.203E-03 -.607E-01 0.109E+00   0.548E-07 0.907E-06 0.437E-04
   0.141E+02 -.814E+01 0.226E+02   -.145E+02 0.836E+01 -.228E+02   0.368E+00 -.212E+00 0.228E+00   0.311E-05 -.171E-05 0.482E-04
   0.369E-02 -.232E+02 0.527E+02   -.381E-02 0.238E+02 -.537E+02   -.221E-03 -.546E+00 0.100E+01   -.216E-06 -.528E-05 0.545E-04
   -.141E+02 -.814E+01 0.228E+02   0.145E+02 0.836E+01 -.230E+02   -.368E+00 -.212E+00 0.225E+00   -.285E-05 -.174E-05 0.481E-04
   -.172E+01 0.991E+00 0.114E+02   0.178E+01 -.103E+01 -.115E+02   -.525E-01 0.303E-01 0.869E-01   0.570E-06 -.366E-06 0.440E-04
   0.172E+01 0.989E+00 0.121E+02   -.178E+01 -.103E+01 -.122E+02   0.525E-01 0.305E-01 0.107E+00   -.625E-06 -.587E-06 0.438E-04
   0.276E+01 -.821E+01 0.148E+02   -.285E+01 0.834E+01 -.150E+02   0.911E-01 -.135E+00 0.122E+00   0.761E-06 -.166E-06 0.454E-04
   -.276E+01 -.821E+01 0.149E+02   0.285E+01 0.834E+01 -.150E+02   -.911E-01 -.135E+00 0.136E+00   -.876E-06 -.331E-06 0.452E-04
   0.518E-01 -.305E-01 -.737E+03   -.519E-01 0.309E-01 0.733E+03   0.273E-04 -.346E-03 0.415E+01   -.133E-06 0.227E-07 0.140E-03
   0.123E-02 -.344E-03 -.139E+02   -.132E-13 0.214E-13 0.000E+00   -.105E-02 0.358E-03 0.139E+02   -.134E-05 0.810E-06 0.165E-02

 POSITION                                       TOTAL-FORCE (eV/Angst)
      1.23329      0.71105     10.00000         0.000820      0.005895     -0.010779
      3.70383      0.71105      9.99949        -0.000516      0.005736     -0.009345
      6.17176      0.71283     10.00000         0.014283      0.008011      0.024946
      8.63959      0.71282     10.00172        -0.014510      0.008340      0.000128
     -0.00416      2.84804      9.99579        -0.005346     -0.002890      0.005464
      2.46855      2.84552      9.98311        -0.000122      0.004513      0.009941
      4.94129      2.84804     10.00000         0.003433     -0.002019     -0.034211
      7.40567      2.85002     10.00218         0.000245     -0.016507      0.001912
     -1.23613      4.98821      9.99992         0.005354     -0.002551     -0.014934
      1.23001      4.99075      9.98367         0.004328     -0.002572      0.004852
      3.70710      4.99075      9.98316        -0.003888     -0.002152      0.010301
      6.17324      4.98821      9.99957        -0.005153     -0.002360     -0.008635
     -2.46856      7.12612     10.00001         0.000021      0.000019      0.002579
     -0.00086      7.12775      9.99979         0.005021     -0.003297     -0.016057
      2.46856      7.13092      9.99571        -0.000065      0.005995      0.004677
      4.93797      7.12775     10.00000        -0.004633     -0.003655     -0.011193
     -0.00086      1.42358     10.00000         0.005134      0.003720     -0.007791
      2.46857      1.42042      9.99551        -0.000542     -0.005617      0.005027
      4.93797      1.42359     10.00076        -0.004627      0.003087     -0.007458
      7.40568      1.42522     10.00062        -0.000017      0.000124      0.009461
     -1.23613      3.56313     10.00041         0.005564      0.002391     -0.013112
      1.23001      3.56059      9.98340         0.004096      0.002738      0.001762
      3.70709      3.56061      9.98431        -0.002940      0.001636      0.013630
      6.17324      3.56314     10.00128        -0.005009      0.002463     -0.001737
     -2.46856      5.70132     10.00000        -0.000393      0.016158      0.015920
     -0.00418      5.70330      9.99585        -0.004383      0.002523      0.006154
      2.46857      5.70582      9.98347        -0.000355     -0.004714      0.002240
      4.94129      5.70329      9.99547         0.004500      0.003271      0.004917
     -3.70247      7.83851     10.00160         0.014064     -0.008145      0.000020
     -1.23465      7.83851     10.00000        -0.014241     -0.007774      0.014471
      1.23329      7.84029      9.99981         0.000587     -0.006081     -0.019950
      3.70383      7.84029     10.00000        -0.000681     -0.006276     -0.009681
      2.46856      4.27567     12.29870        -0.000030     -0.000011      0.026483
    total drift:                                0.000175      0.000014      0.007095

  FREE ENERGIE OF THE ION-ELECTRON SYSTEM (eV)
  free  energy   TOTEN  =      -295.79829162 eV

  energy  without entropy=     -295.76121656  energy(sigma->0) =     -295.77975409

 writing wavefunctions
 vacuum level on the upper side and lower side of the slab         0.941         2.175

 total charge

[...]

 magnetization (x)

# of ion       s       p       d       tot
    1       -0.000   0.000   0.000  -0.000
    2       -0.000   0.000   0.000  -0.000
    3       -0.000  -0.000   0.000  -0.000
    4       -0.000  -0.000   0.000  -0.000
    5       -0.000  -0.000   0.000  -0.000
    6       -0.000  -0.000   0.000  -0.000
    7       -0.000  -0.000   0.000  -0.000
    8       -0.000  -0.000   0.000  -0.000
    9       -0.000   0.000   0.000   0.000
   10       -0.000  -0.000   0.000  -0.000
   11       -0.000  -0.000   0.000  -0.000
   12       -0.000   0.000   0.000  -0.000
   13       -0.000  -0.000   0.000  -0.000
   14       -0.000   0.000   0.000  -0.000
   15       -0.000  -0.000   0.000  -0.000
   16       -0.000   0.000   0.000  -0.000
   17       -0.000   0.000   0.000   0.000
   18       -0.000  -0.000   0.000  -0.000
   19       -0.000   0.000   0.000  -0.000
   20       -0.000  -0.000   0.000  -0.000
   21       -0.000   0.000   0.000  -0.000
   22       -0.000  -0.000   0.000  -0.000
   23       -0.000  -0.000   0.000  -0.000
   24       -0.000   0.000   0.000  -0.000
   25       -0.000  -0.000   0.000  -0.000
   26       -0.000  -0.000   0.000  -0.000
   27       -0.000  -0.000   0.000  -0.000
   28       -0.000  -0.000   0.000  -0.000
   29       -0.000  -0.000   0.000  -0.000
   30       -0.000  -0.000   0.000  -0.000
   31       -0.000   0.000   0.000  -0.000
   32       -0.000   0.000   0.000   0.000
   33       -0.027  -0.002   0.000  -0.030
tot         -0.028  -0.006   0.000  -0.034