 vasp.5.4.4.18Apr17-6-g9f103f2a35 (build Aug 15 2019 10:58:36) complex

 executed on             LinuxIFC date 2019.10.12  15:01:36

 INCAR:
 POTCAR:   PAW_PBE C 08Apr2002
 POTCAR:    PAW_PBE Na_pv 19Sep2006
 POTCAR:   PAW_PBE O 08Apr2002
 POTCAR:   PAW_PBE H 15Jun2001

 POTCAR:   PAW_PBE C 08Apr2002
   VRHFIN =C: s2p2

   TITEL  = PAW_PBE C 08Apr2002
   POMASS =   12.011; ZVAL   =    4.000    mass and valenz
   ENMAX  =  400.000; ENMIN  =  300.000 eV
   QCUT   =   -5.516; QGAM   =   11.032    optimization parameters

   Description
     l     E      TYP  RCUT    TYP  RCUT
     0   .000     23  1.200
     0   .000     23  1.200
     1   .000     23  1.500
     1  2.500     23  1.500
     2   .000      7  1.500

 POTCAR:    PAW_PBE Na_pv 19Sep2006
   VRHFIN =Na: p6s1

   TITEL  = PAW_PBE Na_pv 19Sep2006
   POMASS =   22.990; ZVAL   =    7.000    mass and valenz
   ENMAX  =  259.561; ENMIN  =  194.671 eV
   QCUT   =   -4.368; QGAM   =    8.735    optimization parameters

[...]

 POTCAR:   PAW_PBE O 08Apr2002
   VRHFIN =O: s2p4

   TITEL  = PAW_PBE O 08Apr2002
   POMASS =   16.000; ZVAL   =    6.000    mass and valenz
   ENMAX  =  400.000; ENMIN  =  300.000 eV
   QCUT   =   -5.520; QGAM   =   11.041    optimization parameters

[...]

 POTCAR:   PAW_PBE H 15Jun2001
   VRHFIN =H: ultrasoft test

   TITEL  = PAW_PBE H 15Jun2001
   POMASS =    1.000; ZVAL   =    1.000    mass and valenz
   ENMAX  =  250.000; ENMIN  =  200.000 eV
   QCUT   =   -5.749; QGAM   =   11.498    optimization parameters

   Description
     l     E      TYP  RCUT    TYP  RCUT
     0   .000     23  1.100
     0   .500     23  1.100
     1  -.300     23  1.100

 Optimization of the real space projectors (new method)

 maximal supplied QI-value         = 25.13
 optimisation between [QCUT,QGAM] = [ 11.31, 22.87] = [ 35.82,146.48] Ry
 Optimized for a Real-space Cutoff    1.00 Angstroem

   l    n(q)    QCUT    max X(q) W(low)/X(q) W(high)/X(q)  e(spline)
   0      7    11.310     5.582    0.73E-04    0.21E-03    0.14E-07
   0      7    11.310    69.432    0.43E-03    0.13E-02    0.18E-06
   1      6    11.310     2.780    0.17E-04    0.12E-03    0.37E-07
   1      6    11.310     4.549    0.34E-03    0.55E-03    0.92E-07
 Optimization of the real space projectors (new method)

[...]

   l    n(q)    QCUT    max X(q) W(low)/X(q) W(high)/X(q)  e(spline)
   0      7    11.387     4.192    0.89E-04    0.26E-03    0.19E-07
   0      7    11.387     8.473    0.42E-03    0.14E-02    0.17E-06
   1      6    11.387     2.474    0.11E-03    0.26E-03    0.18E-07
   1      6    11.387     3.912    0.39E-03    0.87E-03    0.15E-06
 Optimization of the real space projectors (new method)

 maximal supplied QI-value         = 34.20
 optimisation between [QCUT,QGAM] = [ 11.29, 22.57] = [ 35.68,142.71] Ry
 Optimized for a Real-space Cutoff    1.16 Angstroem

   l    n(q)    QCUT    max X(q) W(low)/X(q) W(high)/X(q)  e(spline)
   0      8    11.287     4.436    0.39E-04    0.71E-04    0.34E-07
   0      8    11.287    16.131    0.38E-03    0.70E-03    0.15E-06
   1      7    11.287     4.654    0.22E-03    0.25E-04    0.22E-06
 PAW_PBE C 08Apr2002                    :
  PAW_PBE Na_pv 19Sep2006               :
 PAW_PBE O 08Apr2002                    :
 PAW_PBE H 15Jun2001                    :

 POSCAR: graphene+Na
  positions in direct lattice
  velocities in cartesian coordinates
 exchange correlation table for  LEXCH =        8
   RHO(1)=    0.500       N(1)  =     2000
   RHO(2)=  100.500       N(2)  =     4000

 ion  position               nearest neighbor table
   1  0.166  0.083  0.500-  29 1.42  18 1.42  17 1.43
   2  0.417  0.083  0.500-  30 1.42  18 1.42  19 1.43
   3  0.667  0.083  0.500-  19 1.42  31 1.42  20 1.42
   4  0.917  0.083  0.500-  17 1.42  32 1.42  20 1.42
   5  0.166  0.333  0.500-  17 1.42  21 1.42  22 1.43
   6  0.416  0.333  0.499-  18 1.43  22 1.43  23 1.43
   7  0.667  0.333  0.500-  24 1.42  19 1.42  23 1.43
   8  0.917  0.333  0.500-  24 1.42  21 1.42  20 1.42
   9  0.166  0.583  0.500-  25 1.42  26 1.42  21 1.43
  10  0.416  0.584  0.499-  26 1.43  27 1.43  22 1.43
  11  0.667  0.584  0.499-  28 1.43  27 1.43  23 1.43
  12  0.917  0.583  0.500-  25 1.42  28 1.42  24 1.43
  13  0.167  0.833  0.500-  25 1.42  29 1.42  30 1.42
  14  0.417  0.834  0.500-  30 1.42  26 1.42  31 1.43
  15  0.667  0.834  0.500-  32 1.42  31 1.42  27 1.43
  16  0.917  0.834  0.500-  29 1.42  28 1.42  32 1.43
  17  0.083  0.166  0.500-   4 1.42   5 1.42   1 1.43
  18  0.333  0.166  0.500-   2 1.42   1 1.42   6 1.43
  19  0.583  0.166  0.500-   3 1.42   7 1.42   2 1.43
  20  0.833  0.167  0.500-   3 1.42   4 1.42   8 1.42
  21  0.083  0.417  0.500-   8 1.42   5 1.42   9 1.43
  22  0.333  0.416  0.499-   5 1.43   6 1.43  10 1.43
  23  0.584  0.416  0.499-   7 1.43  11 1.43   6 1.43
  24  0.834  0.417  0.500-   8 1.42   7 1.42  12 1.43
  25  0.083  0.667  0.500-   9 1.42  12 1.42  13 1.42
  26  0.333  0.667  0.500-  14 1.42   9 1.42  10 1.43
  27  0.584  0.667  0.499-  15 1.43  11 1.43  10 1.43
  28  0.834  0.667  0.500-  12 1.42  16 1.42  11 1.43
  29  0.083  0.917  0.500-   1 1.42  16 1.42  13 1.42
  30  0.333  0.917  0.500-  14 1.42   2 1.42  13 1.42
  31  0.583  0.917  0.500-   3 1.42  15 1.42  14 1.43
  32  0.834  0.917  0.500-   4 1.42  15 1.42  16 1.43
  33  0.500  0.500  0.761-  34 2.24
  34  0.500  0.500  0.649-  36 0.98  35 0.98  33 2.24
  35  0.423  0.500  0.618-  34 0.98
  36  0.577  0.500  0.619-  34 0.98

  LATTYP: Found a hexagonal cell.
 ALAT       =     9.8742351532
 C/A-ratio  =     2.0254733344

  Lattice vectors:

 A1 = (   9.8742351532,   0.0000000000,   0.0000000000)
 A2 = (  -4.9371175766,   8.5513384856,   0.0000000000)
 A3 = (   0.0000000000,   0.0000000000,  20.0000000000)

Analysis of symmetry for initial positions (statically):
 Subroutine PRICEL returns:
 Original cell was already a primitive cell.

 Routine SETGRP: Setting up the symmetry group for a
 hexagonal supercell.

 Subroutine GETGRP returns: Found  1 space group operations
 (whereof  1 operations were pure point group operations)
 out of a pool of 24 trial point group operations.

The static configuration has the point symmetry C_1 .

Analysis of symmetry for dynamics (positions and initial velocities):
 Subroutine PRICEL returns:
 Original cell was already a primitive cell.

[...]

The dynamic configuration has the point symmetry C_1 .

Analysis of constrained symmetry for selective dynamics:
 Subroutine PRICEL returns:
 Original cell was already a primitive cell.

[...]

The constrained configuration has the point symmetry C_1 .

Analysis of structural, dynamic, and magnetic symmetry:
 Subroutine PRICEL returns:
 Original cell was already a primitive cell.

 Routine SETGRP: Setting up the symmetry group for a
 hexagonal supercell.

 Subroutine GETGRP returns: Found  1 space group operations
 (whereof  1 operations were pure point group operations)
 out of a pool of 24 trial point group operations.

The magnetic configuration has the point symmetry C_1 .

 Subroutine INISYM returns: Found  1 space group operations
 (whereof  1 operations are pure point group operations),
 and found     1 'primitive' translations

 KPOINTS: k-mesh for unfolding the band structure
  k-points in reciprocal lattice
Space group operators:
 irot       det(A)        alpha          n_x          n_y          n_z        tau_x        tau_y        tau_z
    1     1.000000     0.000000     1.000000     0.000000     0.000000     0.000000     0.000000     0.000000

 SYSTEM =  Graphene
 POSCAR =  graphene+Na

 Startparameter for this run:
   NWRITE =      2    write-flag & timer
   PREC   = normal    normal or accurate (medium, high low for compatibility)
   ISTART =      1    job   : 0-new  1-cont  2-samecut
   ICHARG =     11    charge: 1-file 2-atom 10-const
   ISPIN  =      2    spin polarized calculation?
   LNONCOLLINEAR =      F non collinear calculations
   LSORBIT =      F    spin-orbit coupling
   INIWAV =      1    electr: 0-lowe 1-rand  2-diag
   LASPH  =      F    aspherical Exc in radial PAW
   METAGGA=      F    non-selfconsistent MetaGGA calc.

 Electronic Relaxation 1
   ENCUT  =  500.0 eV  36.75 Ry    6.06 a.u.  18.00 18.00 36.46*2*pi/ulx,y,z
   ENINI  =  500.0     initial cutoff
   ENAUG  =  644.9 eV  augmentation charge cutoff
   NELM   =    200;   NELMIN=  2; NELMDL=  0     # of ELM steps
   EDIFF  = 0.1E-06   stopping-criterion for ELM
   LREAL  =      T    real-space projection
   NLSPLINE    = F    spline interpolate recip. space projectors
   LCOMPAT=      F    compatible to vasp.4.4
   GGA_COMPAT  = T    GGA compatible to vasp.4.4-vasp.4.6
   LMAXPAW     = -100 max onsite density
   LMAXMIX     =    2 max onsite mixed and CHGCAR
   VOSKOWN=      0    Vosko Wilk Nusair interpolation
   ROPT   =   -0.00050  -0.00050  -0.00050  -0.00050
 Ionic relaxation
   EDIFFG = 0.1E-05   stopping-criterion for IOM
   NSW    =      0    number of steps for IOM
   NBLOCK =      1;   KBLOCK =      1    inner block; outer block
   IBRION =     -1    ionic relax: 0-MD 1-quasi-New 2-CG
   NFREE  =      0    steps in history (QN), initial steepest desc. (CG)
   ISIF   =      2    stress and relaxation
   IWAVPR =     10    prediction:  0-non 1-charg 2-wave 3-comb
   ISYM   =      2    0-nonsym 1-usesym 2-fastsym
   LCORR  =      T    Harris-Foulkes like correction to forces

   POTIM  = 0.5000    time-step for ionic-motion
   TEIN   =    0.0    initial temperature
   TEBEG  =    0.0;   TEEND  =   0.0 temperature during run
   SMASS  =  -3.00    Nose mass-parameter (am)
   estimated Nose-frequenzy (Omega)   =  0.10E-29 period in steps =****** mass=  -0.223E-26a.u.
   SCALEE = 1.0000    scale energy and forces
   NPACO  =    256;   APACO  = 16.0  distance and # of slots for P.C.
   PSTRESS=    0.0 pullay stress

  Mass of Ions in am
   POMASS =  12.01 22.99 16.00  1.00
  Ionic Valenz
   ZVAL   =   4.00  7.00  6.00  1.00
  Atomic Wigner-Seitz radii
  virtual crystal weights
   VCA    =   1.00  1.00  1.00  1.00
   NELECT =     143.0000    total number of electrons
   NUPDOWN=      -1.0000    fix difference up-down

 DOS related values:
   EMIN   =  10.00;   EMAX   =-10.00  energy-range for DOS
   EFERMI =   0.00
   ISMEAR =     0;   SIGMA  =   0.03  broadening in eV -4-tet -1-fermi 0-gaus

 Electronic relaxation 2 (details)
   IALGO  =     68    algorithm
   LDIAG  =      T    sub-space diagonalisation (order eigenvalues)
   LSUBROT=      F    optimize rotation matrix (better conditioning)
   TURBO    =      0    0=normal 1=particle mesh
   IRESTART =      0    0=no restart 2=restart with 2 vectors
   NREBOOT  =      0    no. of reboots
   NMIN     =      0    reboot dimension
   EREF     =   0.00    reference energy to select bands
   IMIX   =      4    mixing-type and parameters
     AMIX     =   0.40;   BMIX     =  1.00
     AMIX_MAG =   1.60;   BMIX_MAG =  1.00
     AMIN     =   0.10
     WC   =   100.;   INIMIX=   1;  MIXPRE=   1;  MAXMIX= -45

 Intra band minimization:
   WEIMIN = 0.0000     energy-eigenvalue tresh-hold
   EBREAK =  0.13E-09  absolut break condition
   DEPER  =   0.30     relativ break condition

   TIME   =   0.40     timestep for ELM

[...]
  Solvation  Ediel_sol  =         0.00000000
  free energy    TOTEN  =      -310.17697691 eV

  energy without entropy =     -310.17320809  energy(sigma->0) =     -310.17509250

 average (electrostatic) potential at core
  the test charge radii are     0.6991  0.9254  0.7215  0.5201
  (the norm of the test charge is              1.0000)
       1 -57.4772       2 -57.4769       3 -57.4634       4 -57.4633       5 -57.5140
       6 -57.5565       7 -57.5137       8 -57.4706       9 -57.4955      10 -57.5805
      11 -57.5799      12 -57.4952      13 -57.4714      14 -57.4828      15 -57.4907
      16 -57.4827      17 -57.4828      18 -57.4906      19 -57.4826      20 -57.4715
      21 -57.4952      22 -57.5806      23 -57.5801      24 -57.4952      25 -57.4707
      26 -57.5142      27 -57.5564      28 -57.5137      29 -57.4633      30 -57.4632
      31 -57.4772      32 -57.4772      33 -53.3331      34 -79.9706      35 -43.7257
      36 -43.7463

 E-fermi :  -1.5014     XC(G=0):  -2.6223     alpha+bet : -2.1834

 spin component 1

 k-point     1 :       0.0000    0.0000    0.0000
  band No.  band energies     occupation
      1     -27.5831      1.00000
      2     -27.5718      1.00000
      3     -27.5139      1.00000
      4     -24.6202      1.00000
      5     -21.5813      1.00000
      6     -20.1404      1.00000
      7     -20.1362      1.00000
      8     -20.1177      1.00000
      9     -20.1098      1.00000
     10     -20.1039      1.00000
     11     -20.0964      1.00000
     12     -17.3158      1.00000
     13     -17.3145      1.00000
     14     -17.3055      1.00000
     15     -17.3021      1.00000
     16     -17.2891      1.00000
     17     -17.2880      1.00000
     18     -16.3538      1.00000
     19     -16.3526      1.00000
     20     -16.3432      1.00000
     21     -15.2979      1.00000
     22     -15.2961      1.00000
     23     -15.2943      1.00000
     24     -12.6203      1.00000
     25     -12.6027      1.00000
     26     -12.6026      1.00000
     27     -12.6003      1.00000
     28     -12.5968      1.00000
     29     -12.5961      1.00000
     30     -12.2960      1.00000
     31     -11.0217      1.00000
     32     -11.0183      1.00000
     33     -11.0143      1.00000
     34     -11.0139      1.00000
     35     -11.0113      1.00000
     36     -11.0062      1.00000
     37      -9.8425      1.00000
     38      -9.5085      1.00000
     39      -9.5032      1.00000
     40      -9.4996      1.00000
     41      -9.4972      1.00000
     42      -9.4956      1.00000
     43      -9.4870      1.00000
     44      -9.3009      1.00000
     45      -8.4831      1.00000
     46      -8.4805      1.00000
     47      -8.4743      1.00000
     48      -8.0332      1.00000
     49      -8.0190      1.00000
     50      -7.9770      1.00000
     51      -7.9699      1.00000
     52      -7.9581      1.00000
     53      -7.9443      1.00000
     54      -7.1267      1.00000
     55      -7.1231      1.00000
     56      -7.1215      1.00000
     57      -7.1106      1.00000
     58      -7.1049      1.00000
     59      -7.1030      1.00000
     60      -6.7195      1.00000
[...]
    182       8.7367      0.00000
    183       8.8386      0.00000
    184       8.9766      0.00000
    185       9.0215      0.00000
    186       9.1395      0.00000
    187       9.3053      0.00000
    188       9.3513      0.00000
    189       9.4782      0.00000
    190       9.6494      0.00000
    191       9.8402      0.00000
    192       9.8728      0.00000
    193      10.0077      0.00000
    194      10.7162      0.00000
    195      10.8892      0.00000
    196      12.2223      0.00000

[...]

 spin component 2

[...]

 k-point    50 :       0.3889    0.3889    0.0000
  band No.  band energies     occupation
      1     -27.5304      1.00000
      2     -27.5201      1.00000
      3     -27.4647      1.00000
      4     -24.6111      1.00000
      5     -21.1668      1.00000
      6     -21.1512      1.00000
      7     -20.9126      1.00000
      8     -19.9432      1.00000
      9     -19.4659      1.00000
     10     -19.4612      1.00000
     11     -18.5185      1.00000
     12     -18.5136      1.00000
     13     -18.2883      1.00000
     14     -18.2733      1.00000
     15     -17.8261      1.00000
     16     -17.8131      1.00000
     17     -16.1598      1.00000
     18     -16.1504      1.00000
     19     -15.7763      1.00000
     20     -14.9361      1.00000
     21     -14.7929      1.00000
     22     -14.7797      1.00000
     23     -14.7698      1.00000
     24     -14.4726      1.00000
     25     -13.1912      1.00000
     26     -13.1773      1.00000
     27     -12.7481      1.00000
     28     -12.7342      1.00000
     29     -12.5111      1.00000
     30     -12.2899      1.00000
     31     -12.1571      1.00000
     32     -12.1497      1.00000
     33     -10.8011      1.00000
     34     -10.1590      1.00000
     35     -10.1540      1.00000
     36     -10.0401      1.00000
     37     -10.0381      1.00000
     38      -9.6152      1.00000
     39      -9.3289      1.00000
     40      -9.2003      1.00000
     41      -9.0520      1.00000
     42      -8.9239      1.00000
     43      -8.9223      1.00000
     44      -8.8332      1.00000
     45      -8.6791      1.00000
     46      -8.6736      1.00000
     47      -8.6453      1.00000
     48      -8.6400      1.00000
     49      -8.3568      1.00000
     50      -8.3560      1.00000
     51      -8.0463      1.00000
     52      -7.7850      1.00000
     53      -7.2797      1.00000
     54      -7.2526      1.00000
     55      -7.2286      1.00000
     56      -6.7257      1.00000
     57      -6.6278      1.00000
     58      -6.6013      1.00000
     59      -6.4545      1.00000
     60      -6.2015      1.00000
[...]
    182       9.0353      0.00000
    183       9.1174      0.00000
    184       9.2298      0.00000
    185       9.3113      0.00000
    186       9.2900      0.00000
    187       9.3301      0.00000
    188       9.3931      0.00000
    189       9.5398      0.00000
    190       9.5366      0.00000
    191       9.6539      0.00000
    192       9.7513      0.00000
    193       9.8861      0.00000
    194      10.0207      0.00000
    195      10.1607      0.00000
    196      10.3114      0.00000

 soft charge-density along one line, spin component           1
         0         1         2         3         4         5         6         7         8         9
 total charge-density along one line

 soft charge-density along one line, spin component           2
         0         1         2         3         4         5         6         7         8         9
 total charge-density along one line

------------------------ aborting loop because EDIFF is reached ----------------------------------------

  FORCE on cell =-STRESS in cart. coord.  units (eV):
  Direction    XX          YY          ZZ          XY          YZ          ZX
  Alpha Z    61.25800    61.25800    61.25800
  Ewald   25607.16265 25486.86241-29719.46218    -0.13074     0.08503    -0.15564
  Hartree 25557.82685 25535.56696-24656.06511    -0.20379     0.05203    -0.05651
  E(xc)    -540.67950  -541.15757  -558.99864    -0.00064     0.00015     0.00008
  Local  -52659.03129-52551.67244 52599.85145     0.93996    -0.13033     0.16763
  n-local  -167.70713  -168.33205  -160.24343     0.08770    -0.00691     0.01256
  augment    35.30496    37.62122    37.76387    -0.00085    -0.00039     0.00099
  Kinetic  2109.10275  2141.16707  2402.82616     0.04177    -0.00665    -0.00416
  Fock        0.00000     0.00000     0.00000     0.00000     0.00000     0.00000
  Total       3.23729     1.31359     6.93012     0.73340    -0.00707    -0.03506
  in kB       3.07132     1.24625     6.57482     0.69580    -0.00671    -0.03327

 VOLUME and BASIS-vectors are now :
  energy-cutoff  :      500.00
  volume of cell :     1688.76
      direct lattice vectors                 reciprocal lattice vectors
     9.874235153  0.000000000  0.000000000     0.101273667  0.058470379  0.000000000
    -4.937117577  8.551338486  0.000000000     0.000000000  0.116940757  0.000000000
     0.000000000  0.000000000 20.000000000     0.000000000  0.000000000  0.050000000

  length of vectors
     9.874235153  9.874235153 20.000000000     0.116940757  0.116940757  0.050000000

 FORCES acting on ions
    electron-ion (+dipol)            ewald-force                    non-local-force                 convergence-correction
   0.262E+01 0.826E+01 0.312E+02   -.271E+01 -.839E+01 -.316E+02   -.117E-01 0.281E-01 0.734E-01   0.377E-01 0.480E-01 0.376E+00
   -.274E+01 0.826E+01 0.314E+02   0.271E+01 -.839E+01 -.319E+02   -.607E-01 0.281E-01 0.746E-01   0.149E-01 0.466E-01 0.376E+00
   -.197E+01 -.104E+01 0.280E+02   0.197E+01 0.987E+00 -.284E+02   -.624E-01 -.351E-01 0.886E-01   -.966E-02 0.707E-02 0.361E+00
   0.191E+01 -.104E+01 0.271E+02   -.198E+01 0.988E+00 -.275E+02   -.123E-01 -.348E-01 0.428E-01   0.119E-01 0.102E-01 0.363E+00
   0.131E+02 0.792E+01 0.400E+02   -.133E+02 -.812E+01 -.406E+02   0.150E+00 0.108E+00 0.146E+00   0.562E-01 0.430E-01 0.399E+00
   -.609E-01 0.170E+02 0.648E+02   0.485E-02 -.173E+02 -.656E+02   -.384E-01 0.210E+00 0.276E+00   0.238E-01 0.521E-01 0.432E+00
   -.132E+02 0.795E+01 0.382E+02   0.133E+02 -.814E+01 -.388E+02   -.228E+00 0.110E+00 0.932E-01   -.315E-01 0.248E-01 0.401E+00
   -.441E-01 0.234E+01 0.272E+02   -.209E-03 -.245E+01 -.276E+02   -.376E-01 0.170E-01 0.581E-01   0.915E-02 0.166E-01 0.363E+00
   0.870E+01 -.198E+01 0.316E+02   -.887E+01 0.193E+01 -.321E+02   0.506E-01 -.377E-01 0.103E+00   0.533E-01 0.189E-01 0.377E+00
   0.141E+02 -.891E+01 0.655E+02   -.142E+02 0.900E+01 -.664E+02   0.109E+00 -.193E+00 0.495E+00   0.460E-01 0.251E-02 0.434E+00
   -.142E+02 -.888E+01 0.658E+02   0.142E+02 0.900E+01 -.667E+02   -.186E+00 -.192E+00 0.505E+00   -.254E-01 -.128E-01 0.434E+00
   -.881E+01 -.197E+01 0.318E+02   0.886E+01 0.193E+01 -.323E+02   -.124E+00 -.399E-01 0.112E+00   -.164E-01 0.605E-02 0.376E+00
   -.581E-01 -.247E+00 0.270E+02   -.186E-02 0.191E+00 -.274E+02   -.368E-01 -.434E-01 0.822E-01   0.267E-01 0.275E-01 0.354E+00
   0.570E+01 -.682E+01 0.313E+02   -.579E+01 0.685E+01 -.317E+02   -.618E-02 -.120E+00 0.721E-01   0.380E-01 0.621E-02 0.373E+00
   -.350E-01 -.153E+02 0.394E+02   0.403E-03 0.153E+02 -.398E+02   -.376E-01 -.246E+00 0.503E-01   0.121E-02 -.208E-01 0.394E+00
   -.580E+01 -.681E+01 0.313E+02   0.579E+01 0.684E+01 -.318E+02   -.682E-01 -.119E+00 0.803E-01   -.102E-01 -.151E-03 0.375E+00
   0.580E+01 0.682E+01 0.314E+02   -.579E+01 -.685E+01 -.318E+02   0.686E-01 0.119E+00 0.837E-01   0.934E-02 -.457E-03 0.377E+00
   0.328E-01 0.153E+02 0.395E+02   -.123E-02 -.153E+02 -.399E+02   0.370E-01 0.246E+00 0.469E-01   0.145E-02 0.189E-01 0.397E+00
   -.571E+01 0.682E+01 0.311E+02   0.579E+01 -.685E+01 -.316E+02   0.938E-02 0.117E+00 0.848E-01   -.396E-01 -.376E-02 0.378E+00
   0.585E-01 0.244E+00 0.269E+02   0.231E-03 -.190E+00 -.274E+02   0.367E-01 0.430E-01 0.911E-01   -.255E-01 -.248E-01 0.357E+00
   0.881E+01 0.198E+01 0.315E+02   -.887E+01 -.193E+01 -.320E+02   0.125E+00 0.403E-01 0.107E+00   0.148E-01 -.909E-02 0.378E+00
   0.142E+02 0.889E+01 0.656E+02   -.142E+02 -.900E+01 -.666E+02   0.185E+00 0.192E+00 0.492E+00   0.272E-01 0.118E-01 0.434E+00
   -.142E+02 0.891E+01 0.655E+02   0.143E+02 -.901E+01 -.664E+02   -.110E+00 0.192E+00 0.512E+00   -.436E-01 -.231E-02 0.435E+00
   -.871E+01 0.199E+01 0.313E+02   0.887E+01 -.193E+01 -.318E+02   -.446E-01 0.368E-01 0.123E+00   -.557E-01 -.202E-01 0.378E+00
   0.472E-01 -.233E+01 0.280E+02   -.339E-02 0.244E+01 -.284E+02   0.379E-01 -.180E-01 0.895E-01   -.934E-02 -.166E-01 0.360E+00
   0.132E+02 -.794E+01 0.399E+02   -.133E+02 0.812E+01 -.405E+02   0.226E+00 -.109E+00 0.146E+00   0.315E-01 -.246E-01 0.396E+00
   0.523E-01 -.170E+02 0.646E+02   0.959E-03 0.173E+02 -.653E+02   0.373E-01 -.209E+00 0.261E+00   -.199E-01 -.529E-01 0.433E+00
   -.131E+02 -.791E+01 0.401E+02   0.133E+02 0.812E+01 -.407E+02   -.149E+00 -.104E+00 0.144E+00   -.592E-01 -.446E-01 0.396E+00
   -.191E+01 0.104E+01 0.270E+02   0.197E+01 -.988E+00 -.275E+02   0.122E-01 0.349E-01 0.427E-01   -.108E-01 -.907E-02 0.360E+00
   0.197E+01 0.103E+01 0.278E+02   -.197E+01 -.985E+00 -.282E+02   0.629E-01 0.347E-01 0.763E-01   0.713E-02 -.435E-02 0.360E+00
   0.274E+01 -.826E+01 0.312E+02   -.271E+01 0.839E+01 -.316E+02   0.633E-01 -.285E-01 0.605E-01   -.158E-01 -.461E-01 0.373E+00
   -.262E+01 -.826E+01 0.312E+02   0.271E+01 0.839E+01 -.317E+02   0.117E-01 -.283E-01 0.753E-01   -.360E-01 -.490E-01 0.375E+00
   0.615E-02 -.605E-02 -.613E+03   -.647E-02 0.622E-02 0.607E+03   -.405E-03 0.499E-03 0.324E+01   0.624E-03 -.675E-03 0.259E+01
   0.164E+00 -.377E-01 -.525E+03   -.276E+00 0.537E-01 0.564E+03   0.488E-01 -.149E-01 -.408E+02   0.411E-03 -.107E-02 0.266E+01
   0.718E+02 -.308E-01 -.409E+02   -.783E+02 0.328E-01 0.355E+02   0.649E+01 -.251E-02 0.503E+01   0.397E-01 0.407E-03 0.399E+00
   -.720E+02 0.529E-01 -.407E+02   0.785E+02 -.579E-01 0.353E+02   -.653E+01 0.566E-02 0.506E+01   -.392E-01 -.619E-03 0.398E+00
   -.116E-01 0.149E-01 0.413E+01   0.284E-13 0.364E-13 -.178E-12   0.170E-01 -.949E-02 -.227E+02   0.314E-02 -.351E-02 0.184E+02

 POSITION                                       TOTAL-FORCE (eV/Angst)
      1.23329      0.71105     10.00000        -0.066388     -0.057359     -0.002295
      3.70383      0.71105      9.99949        -0.075139     -0.056436      0.000069
      6.17176      0.71283     10.00000        -0.069431     -0.080174      0.026087
      8.63959      0.71282     10.00172        -0.069761     -0.081039     -0.011203
     -0.00416      2.84804      9.99579        -0.015600     -0.052987     -0.005526
      2.46855      2.84552      9.98311        -0.070978      0.001125     -0.035188
      4.94129      2.84804     10.00000        -0.131992     -0.048590     -0.042444
      7.40567      2.85002     10.00218        -0.072989     -0.075761     -0.004697
     -1.23613      4.98821      9.99992        -0.059239     -0.076768     -0.010432
      1.23001      4.99075      9.98367         0.066454     -0.093342      0.017700
      3.70710      4.99075      9.98316        -0.207585     -0.092648      0.026666
      6.17324      4.98821      9.99957        -0.085972     -0.078344     -0.002466
     -2.46856      7.12612     10.00001        -0.070281     -0.071942      0.006109
     -0.00086      7.12775      9.99979        -0.052638     -0.087231     -0.006559
      2.46856      7.13092      9.99571        -0.071222     -0.205526     -0.019292
      4.93797      7.12775     10.00000        -0.088646     -0.088818     -0.001302
     -0.00086      1.42358     10.00000         0.088693      0.088756      0.002032
      2.46857      1.42042      9.99551         0.069802      0.205884     -0.019892
      4.93797      1.42359     10.00077         0.055306      0.085072      0.000717
      7.40568      1.42522     10.00062         0.069635      0.071754      0.014703
     -1.23613      3.56313     10.00041         0.086002      0.078534     -0.010121
      1.23001      3.56059      9.98340         0.206144      0.092644      0.013115
      3.70709      3.56061      9.98431        -0.065418      0.092304      0.028178
      6.17324      3.56314     10.00128         0.064645      0.075615     -0.000021
     -2.46856      5.70132     10.00000         0.072196      0.074562      0.020147
     -0.00418      5.70330      9.99585         0.127643      0.050653     -0.004214
      2.46857      5.70582      9.98347         0.070407     -0.000395     -0.048461
      4.94129      5.70329      9.99547         0.015638      0.056867     -0.004178
     -3.70247      7.83851     10.00160         0.068775      0.081168     -0.011440
     -1.23465      7.83851     10.00000         0.069181      0.080052      0.015653
      1.23329      7.84029      9.99981         0.077507      0.055804     -0.011946
      3.70383      7.84029     10.00000         0.066126      0.056882     -0.000974
      2.46856      4.27567     15.22323        -0.000336     -0.000055     -0.073703
      2.46856      4.27567     12.98133        -0.063055     -0.000086      0.133063
      1.70455      4.27596     12.36902         0.040327     -0.000169      0.035812
      3.23120      4.27500     12.37007         0.022189     -0.000005     -0.013697
    total drift:                                0.008480      0.001906     -0.125168

  FREE ENERGIE OF THE ION-ELECTRON SYSTEM (eV)
  free  energy   TOTEN  =      -310.17697691 eV

  energy  without entropy=     -310.17320809  energy(sigma->0) =     -310.17509250

 writing wavefunctions