 vasp.5.3.5 31Mar14 (build May  5 2015 00:43:50) complex

 executed on             LinuxIFC date 2019.08.23  16:49:22

 INCAR:
 POTCAR:   PAW_PBE C 08Apr2002
 POTCAR:    PAW_PBE Na_pv 19Sep2006

 POTCAR:   PAW_PBE C 08Apr2002
   VRHFIN =C: s2p2

   TITEL  = PAW_PBE C 08Apr2002
   POMASS =   12.011; ZVAL   =    4.000    mass and valenz
   ENMAX  =  400.000; ENMIN  =  300.000 eV
   QCUT   =   -5.516; QGAM   =   11.032    optimization parameters

   Description
     l     E      TYP  RCUT    TYP  RCUT
     0   .000     23  1.200
     0   .000     23  1.200
     1   .000     23  1.500
     1  2.500     23  1.500
     2   .000      7  1.500

 POTCAR:    PAW_PBE Na_pv 19Sep2006
   VRHFIN =Na: p6s1

   TITEL  = PAW_PBE Na_pv 19Sep2006
   POMASS =   22.990; ZVAL   =    7.000    mass and valenz
   ENMAX  =  259.561; ENMIN  =  194.671 eV
   QCUT   =   -4.368; QGAM   =    8.735    optimization parameters

   Description
     l     E      TYP  RCUT    TYP  RCUT
     1   .000     23  2.000
     1   .500     23  2.000
     0   .000     23  2.200
     0  2.500     23  2.200
     2  -.100     23  2.200

 Optimization of the real space projectors (new method)

 maximal supplied QI-value         = 25.13
 optimisation between [QCUT,QGAM] = [ 11.31, 22.87] = [ 35.82,146.48] Ry
 Optimized for a Real-space Cutoff    1.00 Angstroem

   l    n(q)    QCUT    max X(q) W(low)/X(q) W(high)/X(q)  e(spline)
   0      7    11.310     5.582    0.73E-04    0.21E-03    0.14E-07
   0      7    11.310    69.432    0.43E-03    0.13E-02    0.18E-06
   1      6    11.310     2.780    0.17E-04    0.12E-03    0.37E-07
   1      6    11.310     4.549    0.34E-03    0.55E-03    0.92E-07
 Optimization of the real space projectors (new method)

 maximal supplied QI-value         = 17.01
 optimisation between [QCUT,QGAM] = [ 11.40, 22.79] = [ 36.36,145.44] Ry
 Optimized for a Real-space Cutoff    1.43 Angstroem

   l    n(q)    QCUT    max X(q) W(low)/X(q) W(high)/X(q)  e(spline)
   1      9    11.395     4.977    0.21E-05    0.57E-05    0.25E-07
   1      9    11.395     7.312    0.32E-03    0.23E-03    0.25E-06
   0     10    11.395    36.258    0.19E-04    0.13E-05    0.99E-08
   0     10    11.395    45.649    0.25E-04    0.30E-05    0.55E-07
 PAW_PBE C 08Apr2002                    :
  PAW_PBE Na_pv 19Sep2006               :

 POSCAR: graphene+Na
  positions in direct lattice
  velocities in cartesian coordinates
 exchange correlation table for  LEXCH =        8
   RHO(1)=    0.500       N(1)  =     2000
   RHO(2)=  100.500       N(2)  =     4000

 ion  position               nearest neighbor table
   1  0.166  0.083  0.500-  29 1.42  18 1.42  17 1.43
   2  0.417  0.083  0.500-  30 1.42  18 1.42  19 1.43
   3  0.667  0.083  0.500-  19 1.42  31 1.42  20 1.42
   4  0.917  0.083  0.500-  17 1.42  32 1.42  20 1.42
   5  0.166  0.333  0.500-  17 1.42  21 1.42  22 1.43
   6  0.416  0.333  0.499-  18 1.43  22 1.43  23 1.43
   7  0.667  0.333  0.500-  24 1.42  19 1.42  23 1.43
   8  0.917  0.333  0.500-  24 1.42  21 1.42  20 1.42
   9  0.166  0.583  0.500-  25 1.42  26 1.42  21 1.43
  10  0.416  0.584  0.499-  26 1.43  27 1.43  22 1.43
  11  0.667  0.584  0.499-  28 1.43  27 1.43  23 1.43
  12  0.917  0.583  0.500-  25 1.42  28 1.42  24 1.43
  13  0.167  0.833  0.500-  25 1.42  29 1.42  30 1.42
  14  0.417  0.834  0.500-  30 1.42  26 1.42  31 1.43
  15  0.667  0.834  0.500-  32 1.42  31 1.42  27 1.43
  16  0.917  0.834  0.500-  29 1.42  28 1.42  32 1.43
  17  0.083  0.166  0.500-   4 1.42   5 1.42   1 1.43
  18  0.333  0.166  0.500-   2 1.42   1 1.42   6 1.43
  19  0.583  0.166  0.500-   3 1.42   7 1.42   2 1.43
  20  0.833  0.167  0.500-   3 1.42   4 1.42   8 1.42
  21  0.083  0.417  0.500-   8 1.42   5 1.42   9 1.43
  22  0.333  0.416  0.499-   5 1.43   6 1.43  10 1.43
  23  0.584  0.416  0.499-   7 1.43  11 1.43   6 1.43
  24  0.834  0.417  0.500-   8 1.42   7 1.42  12 1.43
  25  0.083  0.667  0.500-   9 1.42  12 1.42  13 1.42
  26  0.333  0.667  0.500-  14 1.42   9 1.42  10 1.43
  27  0.584  0.667  0.499-  15 1.43  11 1.43  10 1.43
  28  0.834  0.667  0.500-  12 1.42  16 1.42  11 1.43
  29  0.083  0.917  0.500-   1 1.42  16 1.42  13 1.42
  30  0.333  0.917  0.500-  14 1.42   2 1.42  13 1.42
  31  0.583  0.917  0.500-   3 1.42  15 1.42  14 1.43
  32  0.834  0.917  0.500-   4 1.42  15 1.42  16 1.43
  33  0.500  0.500  0.615-

  LATTYP: Found a hexagonal cell.
 ALAT       =     9.8742351532
 C/A-ratio  =     2.0254733344

  Lattice vectors:

 A1 = (   9.8742351532,   0.0000000000,   0.0000000000)
 A2 = (  -4.9371175766,   8.5513384856,   0.0000000000)
 A3 = (   0.0000000000,   0.0000000000,  20.0000000000)

Analysis of symmetry for initial positions (statically):
 Subroutine PRICEL returns:
 Original cell was already a primitive cell.

 Routine SETGRP: Setting up the symmetry group for a
 hexagonal supercell.

 Subroutine GETGRP returns: Found  1 space group operations
 (whereof  1 operations were pure point group operations)
 out of a pool of 24 trial point group operations.

The static configuration has the point symmetry C_1 .

Analysis of symmetry for dynamics (positions and initial velocities):
 Subroutine PRICEL returns:
 Original cell was already a primitive cell.

[...]

The dynamic configuration has the point symmetry C_1 .

Analysis of constrained symmetry for selective dynamics:
 Subroutine PRICEL returns:
 Original cell was already a primitive cell.

 Routine SETGRP: Setting up the symmetry group for a
 hexagonal supercell.

 Subroutine GETGRP returns: Found  1 space group operations
 (whereof  1 operations were pure point group operations)
 out of a pool of 24 trial point group operations.

The constrained configuration has the point symmetry C_1 .

Analysis of magnetic symmetry:
 Subroutine PRICEL returns:
 Original cell was already a primitive cell.

 Subroutine MAGSYM returns: Found  1 space group operations
 (whereof  1 operations were pure point group operations)
 out of a pool of  1 trial space group operations
 (whereof  1 operations were pure point group operations)
 and found also     1 'primitive' translations

The magnetic configuration has the point symmetry C_1 .

 KPOINTS: k-mesh for unfolding the band structure
  k-points in reciprocal lattice
Space group operators:
 irot       det(A)        alpha          n_x          n_y          n_z        tau_x        tau_y        tau_z
    1     1.000000     0.000000     1.000000     0.000000     0.000000     0.000000     0.000000     0.000000

 I would recommend the setting:
   dimension x,y,z NGX =    54 NGY =   54 NGZ =  109
 SYSTEM =  Graphene
 POSCAR =  graphene+Na

 Startparameter for this run:
   NWRITE =      2    write-flag & timer
   PREC   = normal    normal or accurate (medium, high low for compatibility)
   ISTART =      0    job   : 0-new  1-cont  2-samecut
   ICHARG =     11    charge: 1-file 2-atom 10-const
   ISPIN  =      2    spin polarized calculation?
   LNONCOLLINEAR =      F non collinear calculations
   LSORBIT =      F    spin-orbit coupling
   INIWAV =      1    electr: 0-lowe 1-rand  2-diag
   LASPH  =      F    aspherical Exc in radial PAW
   METAGGA=      F    non-selfconsistent MetaGGA calc.

 Electronic Relaxation 1
   ENCUT  =  500.0 eV  36.75 Ry    6.06 a.u.  18.00 18.00 36.46*2*pi/ulx,y,z
   ENINI  =  500.0     initial cutoff
   ENAUG  =  644.9 eV  augmentation charge cutoff
   NELM   =    200;   NELMIN=  2; NELMDL= -5     # of ELM steps
   EDIFF  = 0.1E-06   stopping-criterion for ELM
   LREAL  =      T    real-space projection
   NLSPLINE    = F    spline interpolate recip. space projectors
   LCOMPAT=      F    compatible to vasp.4.4
   GGA_COMPAT  = T    GGA compatible to vasp.4.4-vasp.4.6
   LMAXPAW     = -100 max onsite density
   LMAXMIX     =    2 max onsite mixed and CHGCAR
   VOSKOWN=      0    Vosko Wilk Nusair interpolation
   ROPT   =   -0.00050  -0.00050
 Ionic relaxation
   EDIFFG = 0.1E-05   stopping-criterion for IOM
   NSW    =      0    number of steps for IOM
   NBLOCK =      1;   KBLOCK =      1    inner block; outer block
   IBRION =     -1    ionic relax: 0-MD 1-quasi-New 2-CG
   NFREE  =      0    steps in history (QN), initial steepest desc. (CG)
   ISIF   =      2    stress and relaxation
   IWAVPR =     10    prediction:  0-non 1-charg 2-wave 3-comb
   ISYM   =      2    0-nonsym 1-usesym 2-fastsym
   LCORR  =      T    Harris-Foulkes like correction to forces

   POTIM  = 0.5000    time-step for ionic-motion
   TEIN   =    0.0    initial temperature
   TEBEG  =    0.0;   TEEND  =   0.0 temperature during run
   SMASS  =  -3.00    Nose mass-parameter (am)
   estimated Nose-frequenzy (Omega)   =  0.10E-29 period in steps =****** mass=  -0.223E-26a.u.
   SCALEE = 1.0000    scale energy and forces
   NPACO  =    256;   APACO  = 16.0  distance and # of slots for P.C.
   PSTRESS=    0.0 pullay stress

  Mass of Ions in am
   POMASS =  12.01 22.99
  Ionic Valenz
   ZVAL   =   4.00  7.00
  Atomic Wigner-Seitz radii
  virtual crystal weights
   VCA    =   1.00  1.00
   NELECT =     135.0000    total number of electrons
   NUPDOWN=      -1.0000    fix difference up-down

 DOS related values:
   EMIN   =  10.00;   EMAX   =-10.00  energy-range for DOS
   EFERMI =   0.00
   ISMEAR =     0;   SIGMA  =   0.03  broadening in eV -4-tet -1-fermi 0-gaus

 Electronic relaxation 2 (details)
   IALGO  =     68    algorithm
   LDIAG  =      T    sub-space diagonalisation (order eigenvalues)
   LSUBROT=      F    optimize rotation matrix (better conditioning)
   TURBO    =      0    0=normal 1=particle mesh
   IRESTART =      0    0=no restart 2=restart with 2 vectors
   NREBOOT  =      0    no. of reboots
   NMIN     =      0    reboot dimension
   EREF     =   0.00    reference energy to select bands
   IMIX   =      4    mixing-type and parameters
     AMIX     =   0.40;   BMIX     =  1.00
     AMIX_MAG =   1.60;   BMIX_MAG =  1.00
     AMIN     =   0.10
     WC   =   100.;   INIMIX=   1;  MIXPRE=   1;  MAXMIX= -45

 Intra band minimization:
   WEIMIN = 0.0000     energy-eigenvalue tresh-hold
   EBREAK =  0.17E-09  absolut break condition
   DEPER  =   0.30     relativ break condition

   TIME   =   0.40     timestep for ELM

  volume/ion in A,a.u.               =      51.17       345.34
  Fermi-wavevector in a.u.,A,eV,Ry     =   0.705229  1.332690  6.766832  0.497348
  Thomas-Fermi vector in A             =   1.790684

 Write flags
   LWAVE  =      T    write WAVECAR
   LCHARG =      F    write CHGCAR
   LVTOT  =      F    write LOCPOT, total local potential
   LVHAR  =      F    write LOCPOT, Hartree potential only
   LELF   =      F    write electronic localiz. function (ELF)
   LORBIT =      0    0 simple, 1 ext, 2 COOP (PROOUT)

 Dipole corrections
   LMONO  =      F    monopole corrections only (constant potential shift)
   LDIPOL =      T    correct potential (dipole corrections)
   IDIPOL =      3    1-x, 2-y, 3-z, 4-all directions
   EPSILON=  1.0000000 bulk dielectric constant

 Exchange correlation treatment:
   GGA     =    --    GGA type
   VOSKOWN=      0    Vosko Wilk Nusair interpolation
   LHFCALC =     F    Hartree Fock is set to
   LHFONE  =     F    Hartree Fock one center treatment
[...]
 direction  3 min pos    21,
 dipolmoment           0.000000      0.000000     -0.585315 electrons x Angstroem
 Tr[quadrupol]     -2317.746786

 energy correction for charged system         0.000000 eV
 dipol+quadrupol energy correction           -0.018356 eV
 added-field ion interaction        -14.139652 eV  (added to PSCEN)

 Free energy of the ion-electron system (eV)
  alpha Z        PSCENC =        41.43241275
  Ewald energy   TEWEN  =     21840.33001928
  -Hartree energ DENC   =    -26401.20916086
  -exchange      EXHF   =         0.00000000
  -V(xc)+E(xc)   XCENC  =       485.57576784
  PAW double counting   =      2689.20727064    -2819.12307877
  entropy T*S    EENTRO =        -0.00270856
  eigenvalues    EBANDS =     -1606.80897743
  atomic energy  EATOM  =      5474.79130437
  free energy    TOTEN  =      -295.80715074 eV

  energy without entropy =     -295.80444218  energy(sigma->0) =     -295.80579646

 average (electrostatic) potential at core
  the test charge radii are     0.6991  0.9254
  (the norm of the test charge is              1.0000)
       1 -57.4352       2 -57.4350       3 -57.3905       4 -57.3904       5 -57.4907
       6 -57.6568       7 -57.4906       8 -57.3905       9 -57.4352      10 -57.6570
      11 -57.6566      12 -57.4351      13 -57.3988      14 -57.4352      15 -57.4906
      16 -57.4352      17 -57.4353      18 -57.4905      19 -57.4352      20 -57.3987
      21 -57.4350      22 -57.6569      23 -57.6568      24 -57.4352      25 -57.3906
      26 -57.4907      27 -57.6568      28 -57.4905      29 -57.3905      30 -57.3904
      31 -57.4350      32 -57.4352      33 -53.9155

 E-fermi :  -1.3047     XC(G=0):  -2.3592     alpha+bet : -2.1104

 spin component 1

 k-point     1 :       0.0000    0.0000    0.0000
  band No.  band energies     occupation
      1     -28.0936      1.00000
      2     -28.0935      1.00000
      3     -28.0864      1.00000
      4     -21.5900      1.00000
      5     -20.2259      1.00000
      6     -20.1478      1.00000
      7     -20.1477      1.00000
      8     -20.0688      1.00000
      9     -20.0687      1.00000
     10     -20.0410      1.00000
     11     -17.3284      1.00000
     12     -17.3283      1.00000
     13     -17.3018      1.00000
     14     -17.3018      1.00000
     15     -17.2902      1.00000
     16     -17.2591      1.00000
     17     -16.3450      1.00000
     18     -16.3449      1.00000
     19     -16.3355      1.00000
     20     -15.3013      1.00000
     21     -15.2883      1.00000
     22     -15.2883      1.00000
     23     -12.6160      1.00000
     24     -12.6160      1.00000
     25     -12.6059      1.00000
     26     -12.6059      1.00000
     27     -12.5668      1.00000
     28     -12.5607      1.00000
     29     -11.0610      1.00000
     30     -11.0536      1.00000
     31     -10.9883      1.00000
     32     -10.9883      1.00000
     33     -10.9817      1.00000
     34     -10.9816      1.00000
     35      -9.7861      1.00000
     36      -9.5087      1.00000
     37      -9.5087      1.00000
     38      -9.5070      1.00000
     39      -9.4808      1.00000
     40      -9.4807      1.00000
     41      -9.4559      1.00000
     42      -8.4710      1.00000
     43      -8.4709      1.00000
     44      -8.4642      1.00000
     45      -8.2304      1.00000
     46      -8.0885      1.00000
     47      -8.0882      1.00000
     48      -7.9477      1.00000
     49      -7.9476      1.00000
     50      -7.9117      1.00000
     51      -7.1254      1.00000
     52      -7.1196      1.00000
     53      -7.1196      1.00000
     54      -7.0899      1.00000
     55      -7.0898      1.00000
     56      -7.0683      1.00000
     57      -5.0949      1.00000
     58      -5.0948      1.00000
     59      -4.9916      1.00000
     60      -4.9914      1.00000
[...]
    130       5.9560      0.00000
    131       6.0160      0.00000
    132       6.0168      0.00000
    133       6.0245      0.00000
    134       6.3267      0.00000
    135       6.5032      0.00000
    136       6.5739      0.00000
    137       6.5745      0.00000
    138       6.7558      0.00000
    139       6.7570      0.00000
    140       6.7935      0.00000
    141       6.9852      0.00000
    142       7.1637      0.00000
    143       7.1963      0.00000
    144       7.4024      0.00000

[...]

 spin component 2

[...]

 k-point    50 :       0.3889    0.3889    0.0000
  band No.  band energies     occupation
      1     -28.1185      1.00000
      2     -28.1185      1.00000
      3     -28.1157      1.00000
      4     -21.2256      1.00000
      5     -21.1151      1.00000
      6     -20.9034      1.00000
      7     -19.9433      1.00000
      8     -19.4682      1.00000
      9     -19.4593      1.00000
     10     -18.5250      1.00000
     11     -18.5174      1.00000
     12     -18.2840      1.00000
     13     -18.2583      1.00000
     14     -17.8601      1.00000
     15     -17.7745      1.00000
     16     -16.1885      1.00000
     17     -16.1160      1.00000
     18     -15.7730      1.00000
     19     -14.9320      1.00000
     20     -14.7930      1.00000
     21     -14.7870      1.00000
     22     -14.7509      1.00000
     23     -14.4695      1.00000
     24     -13.1947      1.00000
     25     -13.1628      1.00000
     26     -12.7378      1.00000
     27     -12.7331      1.00000
     28     -12.5078      1.00000
     29     -12.1501      1.00000
     30     -12.1450      1.00000
     31     -10.7976      1.00000
     32     -10.1541      1.00000
     33     -10.1467      1.00000
     34     -10.0413      1.00000
     35     -10.0239      1.00000
     36      -9.3941      1.00000
     37      -9.3214      1.00000
     38      -9.1845      1.00000
     39      -8.9457      1.00000
     40      -8.9292      1.00000
     41      -8.9093      1.00000
     42      -8.6652      1.00000
     43      -8.6627      1.00000
     44      -8.6338      1.00000
     45      -8.6316      1.00000
     46      -8.3734      1.00000
     47      -8.3136      1.00000
     48      -8.0358      1.00000
     49      -7.8330      1.00000
     50      -7.2885      1.00000
     51      -7.2772      1.00000
     52      -7.2685      1.00000
     53      -6.6439      1.00000
     54      -6.5692      1.00000
     55      -6.4347      1.00000
     56      -6.2549      1.00000
     57      -6.2517      1.00000
     58      -6.0042      1.00000
     59      -5.9796      1.00000
     60      -5.9365      1.00000
[...]
    130       6.0292      0.00000
    131       6.1040      0.00000
    132       6.1611      0.00000
    133       6.1668      0.00000
    134       6.2808      0.00000
    135       6.3186      0.00000
    136       6.4090      0.00000
    137       6.4683      0.00000
    138       6.4789      0.00000
    139       6.4914      0.00000
    140       6.5657      0.00000
    141       6.6284      0.00000
    142       6.7421      0.00000
    143       6.8368      0.00000
    144       6.8616      0.00000

 soft charge-density along one line, spin component           1
         0         1         2         3         4         5         6         7         8         9
 total charge-density along one line

 soft charge-density along one line, spin component           2
         0         1         2         3         4         5         6         7         8         9
 total charge-density along one line

------------------------ aborting loop because EDIFF is reached ----------------------------------------

  FORCE on cell =-STRESS in cart. coord.  units (eV):
  Direction    XX          YY          ZZ          XY          YZ          ZX
  Alpha Z    55.59042    55.59042    55.59042
  Ewald   26221.75407 26221.61439-30603.04900    -0.06816     0.02345    -0.04669
  Hartree 26005.72210 26005.68071-25557.00811    -0.03767     0.01295    -0.02595
  E(xc)    -505.22959  -505.22991  -523.48698    -0.00022     0.00002    -0.00005
  Local  -53641.14296-53641.60237 54477.03185     0.50402    -0.03605     0.07180
  n-local  -137.89218  -137.97243  -131.31501     0.05529    -0.00037     0.00000
  augment    29.46186    29.46426    30.68592    -0.00227    -0.00001    -0.00004
  Kinetic  1976.25145  1976.18882  2257.06253    -0.29779    -0.00032     0.00055
  Fock        0.00000     0.00000     0.00000     0.00000     0.00000     0.00000
  Total       4.51516     3.73388     5.51163     0.15321    -0.00034    -0.00039
  in kB       4.28367     3.54245     5.22905     0.14536    -0.00032    -0.00037

 VOLUME and BASIS-vectors are now :
  energy-cutoff  :      500.00
  volume of cell :     1688.76
      direct lattice vectors                 reciprocal lattice vectors
     9.874235153  0.000000000  0.000000000     0.101273667  0.058470379  0.000000000
    -4.937117577  8.551338486  0.000000000     0.000000000  0.116940757  0.000000000
     0.000000000  0.000000000 20.000000000     0.000000000  0.000000000  0.050000000

  length of vectors
     9.874235153  9.874235153 20.000000000     0.116940757  0.116940757  0.050000000

 FORCES acting on ions
    electron-ion (+dipol)            ewald-force                    non-local-force                 convergence-correction
   0.267E+01 0.805E+01 0.144E+02   -.285E+01 -.834E+01 -.150E+02   0.616E-01 0.115E+00 0.137E+00   0.810E-01 0.141E+00 0.466E+00
   -.274E+01 0.806E+01 0.146E+02   0.285E+01 -.834E+01 -.152E+02   -.117E+00 0.118E+00 0.136E+00   -.213E-01 0.138E+00 0.467E+00
   -.165E+01 -.969E+00 0.119E+02   0.178E+01 0.103E+01 -.124E+02   -.758E-01 -.479E-01 0.123E+00   -.565E-01 -.297E-01 0.412E+00
   0.171E+01 -.987E+00 0.110E+02   -.178E+01 0.103E+01 -.115E+02   0.252E-01 -.509E-01 0.867E-01   0.601E-02 -.214E-01 0.414E+00
   0.139E+02 0.801E+01 0.221E+02   -.145E+02 -.836E+01 -.229E+02   0.342E+00 0.193E+00 0.239E+00   0.190E+00 0.116E+00 0.555E+00
   -.274E-01 0.230E+02 0.521E+02   0.188E-02 -.238E+02 -.539E+02   -.271E-01 0.529E+00 0.105E+01   0.260E-01 0.179E+00 0.742E+00
   -.139E+02 0.806E+01 0.203E+02   0.145E+02 -.837E+01 -.211E+02   -.397E+00 0.192E+00 0.181E+00   -.187E+00 0.817E-01 0.557E+00
   0.131E-01 0.195E+01 0.109E+02   0.117E-02 -.206E+01 -.114E+02   -.280E-01 0.408E-01 0.890E-01   -.178E-01 0.243E-01 0.413E+00
   0.833E+01 -.173E+01 0.144E+02   -.865E+01 0.170E+01 -.150E+02   0.134E+00 -.104E-01 0.129E+00   0.153E+00 0.719E-03 0.465E+00
   0.200E+02 -.116E+02 0.518E+02   -.206E+02 0.119E+02 -.536E+02   0.448E+00 -.294E+00 0.104E+01   0.169E+00 -.648E-01 0.743E+00
   -.199E+02 -.115E+02 0.521E+02   0.206E+02 0.119E+02 -.539E+02   -.500E+00 -.293E+00 0.104E+01   -.189E+00 -.106E+00 0.743E+00
   -.837E+01 -.169E+01 0.146E+02   0.865E+01 0.170E+01 -.152E+02   -.190E+00 -.101E-01 0.137E+00   -.121E+00 -.394E-01 0.464E+00
   -.246E-01 -.312E-01 0.112E+02   -.910E-03 0.832E-03 -.117E+02   -.247E-01 -.180E-01 0.107E+00   0.288E-01 0.217E-01 0.395E+00
   0.562E+01 -.644E+01 0.144E+02   -.580E+01 0.664E+01 -.150E+02   0.471E-01 -.167E+00 0.129E+00   0.106E+00 -.731E-01 0.464E+00
   0.255E-01 -.161E+02 0.221E+02   -.137E-02 0.167E+02 -.229E+02   -.279E-01 -.446E+00 0.239E+00   -.281E-01 -.194E+00 0.553E+00
   -.564E+01 -.643E+01 0.144E+02   0.580E+01 0.664E+01 -.150E+02   -.100E+00 -.166E+00 0.137E+00   -.982E-01 -.792E-01 0.465E+00
   0.564E+01 0.643E+01 0.144E+02   -.580E+01 -.664E+01 -.150E+02   0.101E+00 0.166E+00 0.140E+00   0.971E-01 0.781E-01 0.467E+00
   -.238E-01 0.161E+02 0.222E+02   -.194E-02 -.167E+02 -.230E+02   0.276E-01 0.446E+00 0.235E+00   0.293E-01 0.194E+00 0.555E+00
   -.563E+01 0.644E+01 0.142E+02   0.580E+01 -.664E+01 -.148E+02   -.475E-01 0.166E+00 0.142E+00   -.107E+00 0.755E-01 0.468E+00
   0.241E-01 0.293E-01 0.111E+02   0.702E-03 0.440E-03 -.116E+02   0.246E-01 0.178E-01 0.115E+00   -.281E-01 -.208E-01 0.398E+00
   0.838E+01 0.169E+01 0.143E+02   -.865E+01 -.171E+01 -.149E+02   0.190E+00 0.102E-01 0.134E+00   0.119E+00 0.381E-01 0.465E+00
   0.199E+02 0.115E+02 0.519E+02   -.206E+02 -.119E+02 -.537E+02   0.500E+00 0.293E+00 0.104E+01   0.191E+00 0.105E+00 0.743E+00
   -.200E+02 0.116E+02 0.518E+02   0.206E+02 -.119E+02 -.536E+02   -.448E+00 0.294E+00 0.105E+01   -.168E+00 0.653E-01 0.744E+00
   -.833E+01 0.174E+01 0.141E+02   0.866E+01 -.170E+01 -.148E+02   -.134E+00 0.104E-01 0.153E+00   -.155E+00 -.227E-02 0.466E+00
   -.126E-01 -.195E+01 0.117E+02   -.172E-02 0.206E+01 -.123E+02   0.279E-01 -.409E-01 0.112E+00   0.177E-01 -.250E-01 0.411E+00
   0.139E+02 -.804E+01 0.220E+02   -.145E+02 0.836E+01 -.228E+02   0.398E+00 -.193E+00 0.239E+00   0.186E+00 -.809E-01 0.552E+00
   0.258E-01 -.230E+02 0.519E+02   -.381E-02 0.238E+02 -.537E+02   0.261E-01 -.529E+00 0.104E+01   -.227E-01 -.180E+00 0.743E+00
   -.139E+02 -.801E+01 0.222E+02   0.145E+02 0.836E+01 -.230E+02   -.342E+00 -.193E+00 0.236E+00   -.193E+00 -.118E+00 0.553E+00
   -.171E+01 0.985E+00 0.110E+02   0.178E+01 -.103E+01 -.115E+02   -.260E-01 0.514E-01 0.878E-01   -.655E-02 0.218E-01 0.412E+00
   0.165E+01 0.966E+00 0.117E+02   -.178E+01 -.103E+01 -.122E+02   0.758E-01 0.478E-01 0.111E+00   0.569E-01 0.309E-01 0.411E+00
   0.274E+01 -.806E+01 0.144E+02   -.285E+01 0.834E+01 -.150E+02   0.117E+00 -.118E+00 0.124E+00   0.218E-01 -.138E+00 0.464E+00
   -.267E+01 -.805E+01 0.144E+02   0.285E+01 0.834E+01 -.150E+02   -.615E-01 -.116E+00 0.138E+00   -.806E-01 -.141E+00 0.466E+00
   0.514E-01 -.304E-01 -.741E+03   -.519E-01 0.309E-01 0.733E+03   -.257E-03 -.429E-03 0.466E+01   0.690E-03 -.443E-04 0.330E+01
   -.102E-02 0.944E-03 -.349E+02   -.132E-13 0.214E-13 0.000E+00   -.117E-02 -.784E-03 0.148E+02   0.189E-02 -.791E-03 0.199E+02

 POSITION                                       TOTAL-FORCE (eV/Angst)
      1.23329      0.71105     10.00000        -0.040032     -0.034987     -0.006757
      3.70383      0.71105      9.99949        -0.025815     -0.025983     -0.005496
      6.17176      0.71283     10.00000        -0.001299     -0.017927      0.031058
      8.63959      0.71282     10.00172        -0.042861     -0.028862      0.003358
     -0.00416      2.84804      9.99579        -0.036650     -0.040262      0.012066
      2.46855      2.84552      9.98311        -0.026636     -0.032484      0.026182
      4.94129      2.84804     10.00000        -0.024294     -0.042116     -0.028428
      7.40567      2.85002     10.00218        -0.031534     -0.045117      0.005621
     -1.23613      4.98821      9.99992        -0.036433     -0.042601     -0.010866
      1.23001      4.99075      9.98367        -0.029218     -0.029475      0.020899
      3.70710      4.99075      9.98316        -0.017834     -0.025887      0.022314
      6.17324      4.98821      9.99957        -0.033835     -0.037789     -0.003497
     -2.46856      7.12612     10.00001        -0.021354     -0.026681      0.008961
     -0.00086      7.12775      9.99979        -0.020632     -0.037392     -0.011580
      2.46856      7.13092      9.99571        -0.031871     -0.023132      0.011982
      4.93797      7.12775     10.00000        -0.035508     -0.038462     -0.006726
     -0.00086      1.42358     10.00000         0.036142      0.038660     -0.003576
      2.46857      1.42042      9.99551         0.031236      0.023513      0.011473
      4.93797      1.42359     10.00076         0.020381      0.036700     -0.004161
      7.40568      1.42522     10.00062         0.021216      0.026764      0.017367
     -1.23613      3.56313     10.00041         0.034451      0.037870     -0.009087
      1.23001      3.56059      9.98340         0.017880      0.026554      0.014693
      3.70709      3.56061      9.98431         0.031197      0.028116      0.027106
      6.17324      3.56314     10.00128         0.036947      0.042579      0.002189
     -2.46856      5.70132     10.00000         0.031285      0.044897      0.021459
     -0.00418      5.70330      9.99585         0.024723      0.041820      0.013572
      2.46857      5.70582      9.98347         0.025426      0.032388      0.019437
      4.94129      5.70329      9.99547         0.036015      0.040715      0.010917
     -3.70247      7.83851     10.00160         0.041506      0.029566      0.004321
     -1.23465      7.83851     10.00000         0.001232      0.018122      0.020800
      1.23329      7.84029      9.99981         0.025981      0.026246     -0.015784
      3.70383      7.84029     10.00000         0.040187      0.034662     -0.005587
      2.46856      4.27567     12.29870         0.000002     -0.000019     -0.194228
    total drift:                               -0.000300     -0.000631     -0.191489

  FREE ENERGIE OF THE ION-ELECTRON SYSTEM (eV)
  free  energy   TOTEN  =      -295.80715074 eV

  energy  without entropy=     -295.80444218  energy(sigma->0) =     -295.80579646

 writing wavefunctions