 vasp.5.4.4.18Apr17-6-g9f103f2a35 (build Apr 11 2019 18:12:45) complex

 executed on             LinuxIFC date 2019.08.01  09:13:37

 INCAR:
 POTCAR:   PAW_PBE C 08Apr2002

 POTCAR:   PAW_PBE C 08Apr2002
   VRHFIN =C: s2p2

   TITEL  = PAW_PBE C 08Apr2002
   POMASS =   12.011; ZVAL   =    4.000    mass and valenz
   ENMAX  =  400.000; ENMIN  =  300.000 eV
   QCUT   =   -5.516; QGAM   =   11.032    optimization parameters

   Description
     l     E      TYP  RCUT    TYP  RCUT
     0   .000     23  1.200
     0   .000     23  1.200
     1   .000     23  1.500
     1  2.500     23  1.500
     2   .000      7  1.500

 Optimization of the real space projectors (new method)

 maximal supplied QI-value         = 25.13
 optimisation between [QCUT,QGAM] = [ 11.31, 28.40] = [ 35.82,225.87] Ry
 Optimized for a Real-space Cutoff    0.93 Angstroem

   l    n(q)    QCUT    max X(q) W(low)/X(q) W(high)/X(q)  e(spline)
   0      8    11.310     5.582    0.36E-04    0.13E-04    0.14E-07
   0      8    11.310    69.432    0.28E-03    0.21E-03    0.11E-06
   1      7    11.310     2.780    0.37E-04    0.49E-04    0.22E-07
   1      7    11.310     4.549    0.27E-03    0.38E-03    0.91E-07
 PAW_PBE C 08Apr2002                    :

 POSCAR: graphene+Na
  positions in direct lattice
 exchange correlation table for  LEXCH =        8
   RHO(1)=    0.500       N(1)  =     2000
   RHO(2)=  100.500       N(2)  =     4000

 ion  position               nearest neighbor table
   1  0.166  0.083  0.500-  29 1.42  18 1.42  17 1.43
   2  0.417  0.083  0.500-  30 1.42  18 1.42  19 1.43
   3  0.667  0.083  0.500-  19 1.42  31 1.42  20 1.42
   4  0.917  0.083  0.500-  17 1.42  32 1.42  20 1.42
   5  0.166  0.333  0.500-  17 1.42  21 1.42  22 1.43
   6  0.416  0.333  0.499-  18 1.43  22 1.43  23 1.43
   7  0.667  0.333  0.500-  24 1.42  19 1.42  23 1.43
   8  0.917  0.333  0.500-  24 1.42  21 1.42  20 1.42
   9  0.166  0.583  0.500-  25 1.42  26 1.42  21 1.43
  10  0.416  0.584  0.499-  26 1.43  27 1.43  22 1.43
  11  0.667  0.584  0.499-  28 1.43  27 1.43  23 1.43
  12  0.917  0.583  0.500-  25 1.42  28 1.42  24 1.43
  13  0.167  0.833  0.500-  25 1.42  29 1.42  30 1.42
  14  0.417  0.834  0.500-  30 1.42  26 1.42  31 1.43
  15  0.667  0.834  0.500-  32 1.42  31 1.42  27 1.43
  16  0.917  0.834  0.500-  29 1.42  28 1.42  32 1.43
  17  0.083  0.166  0.500-   4 1.42   5 1.42   1 1.43
  18  0.333  0.166  0.500-   2 1.42   1 1.42   6 1.43
  19  0.583  0.166  0.500-   3 1.42   7 1.42   2 1.43
  20  0.833  0.167  0.500-   3 1.42   4 1.42   8 1.42
  21  0.083  0.417  0.500-   8 1.42   5 1.42   9 1.43
  22  0.333  0.416  0.499-   5 1.43   6 1.43  10 1.43
  23  0.584  0.416  0.499-   7 1.43  11 1.43   6 1.43
  24  0.834  0.417  0.500-   8 1.42   7 1.42  12 1.43
  25  0.083  0.667  0.500-   9 1.42  12 1.42  13 1.42
  26  0.333  0.667  0.500-  14 1.42   9 1.42  10 1.43
  27  0.584  0.667  0.499-  15 1.43  11 1.43  10 1.43
  28  0.834  0.667  0.500-  12 1.42  16 1.42  11 1.43
  29  0.083  0.917  0.500-   1 1.42  16 1.42  13 1.42
  30  0.333  0.917  0.500-  14 1.42   2 1.42  13 1.42
  31  0.583  0.917  0.500-   3 1.42  15 1.42  14 1.43
  32  0.834  0.917  0.500-   4 1.42  15 1.42  16 1.43

  LATTYP: Found a hexagonal cell.
 ALAT       =     9.8742351532
 C/A-ratio  =     2.0254733344

  Lattice vectors:

 A1 = (   9.8742351532,   0.0000000000,   0.0000000000)
 A2 = (  -4.9371175766,   8.5513384856,   0.0000000000)
 A3 = (   0.0000000000,   0.0000000000,  20.0000000000)

Analysis of symmetry for initial positions (statically):
 Subroutine PRICEL returns:
 Original cell was already a primitive cell.

 Routine SETGRP: Setting up the symmetry group for a
 hexagonal supercell.

 Subroutine GETGRP returns: Found  1 space group operations
 (whereof  1 operations were pure point group operations)
 out of a pool of 24 trial point group operations.

The static configuration has the point symmetry C_1 .

Analysis of symmetry for dynamics (positions and initial velocities):
 Subroutine PRICEL returns:
 Original cell was already a primitive cell.

[...]

The dynamic configuration has the point symmetry C_1 .

Analysis of constrained symmetry for selective dynamics:
 Subroutine PRICEL returns:
 Original cell was already a primitive cell.

 Routine SETGRP: Setting up the symmetry group for a
 hexagonal supercell.

 Subroutine GETGRP returns: Found  1 space group operations
 (whereof  1 operations were pure point group operations)
 out of a pool of 24 trial point group operations.

The constrained configuration has the point symmetry C_1 .

 Subroutine INISYM returns: Found  1 space group operations
 (whereof  1 operations are pure point group operations),
 and found     1 'primitive' translations

 KPOINTS: Automatic mesh

Automatic generation of k-mesh.
Space group operators:
 irot       det(A)        alpha          n_x          n_y          n_z        tau_x        tau_y        tau_z
    1     1.000000     0.000000     1.000000     0.000000     0.000000     0.000000     0.000000     0.000000

 Subroutine IBZKPT returns following result:

 Found     41 irreducible k-points:

 Following reciprocal coordinates:
            Coordinates               Weight
  0.000000  0.000000  0.000000      1.000000
  0.111111  0.000000  0.000000      2.000000
  0.222222  0.000000  0.000000      2.000000
  0.333333  0.000000  0.000000      2.000000
  0.444444  0.000000  0.000000      2.000000
  0.000000  0.111111  0.000000      2.000000
  0.111111  0.111111  0.000000      2.000000
  0.222222  0.111111  0.000000      2.000000
  0.333333  0.111111  0.000000      2.000000
  0.444444  0.111111  0.000000      2.000000
 -0.444444  0.111111  0.000000      2.000000
 -0.333333  0.111111  0.000000      2.000000
 -0.222222  0.111111  0.000000      2.000000
 -0.111111  0.111111  0.000000      2.000000
  0.000000  0.222222  0.000000      2.000000
  0.111111  0.222222  0.000000      2.000000
  0.222222  0.222222  0.000000      2.000000
  0.333333  0.222222  0.000000      2.000000
  0.444444  0.222222  0.000000      2.000000
 -0.444444  0.222222  0.000000      2.000000
 -0.333333  0.222222  0.000000      2.000000
 -0.222222  0.222222  0.000000      2.000000
 -0.111111  0.222222  0.000000      2.000000
  0.000000  0.333333  0.000000      2.000000
  0.111111  0.333333  0.000000      2.000000
  0.222222  0.333333  0.000000      2.000000
  0.333333  0.333333  0.000000      2.000000
  0.444444  0.333333  0.000000      2.000000
 -0.444444  0.333333  0.000000      2.000000
 -0.333333  0.333333  0.000000      2.000000
 -0.222222  0.333333  0.000000      2.000000
 -0.111111  0.333333  0.000000      2.000000
  0.000000  0.444444  0.000000      2.000000
  0.111111  0.444444  0.000000      2.000000
  0.222222  0.444444  0.000000      2.000000
  0.333333  0.444444  0.000000      2.000000
  0.444444  0.444444  0.000000      2.000000
 -0.444444  0.444444  0.000000      2.000000
 -0.333333  0.444444  0.000000      2.000000
 -0.222222  0.444444  0.000000      2.000000
 -0.111111  0.444444  0.000000      2.000000

 Following cartesian coordinates:
            Coordinates               Weight
  0.000000  0.000000  0.000000      1.000000
  0.011253  0.006497  0.000000      2.000000
  0.022505  0.012993  0.000000      2.000000
  0.033758  0.019490  0.000000      2.000000
  0.045011  0.025987  0.000000      2.000000
  0.000000  0.012993  0.000000      2.000000
  0.011253  0.019490  0.000000      2.000000
  0.022505  0.025987  0.000000      2.000000
  0.033758  0.032484  0.000000      2.000000
  0.045011  0.038980  0.000000      2.000000
 -0.045011 -0.012993  0.000000      2.000000
 -0.033758 -0.006497  0.000000      2.000000
 -0.022505 -0.000000  0.000000      2.000000
 -0.011253  0.006497  0.000000      2.000000
  0.000000  0.025987  0.000000      2.000000
  0.011253  0.032484  0.000000      2.000000
  0.022505  0.038980  0.000000      2.000000
  0.033758  0.045477  0.000000      2.000000
  0.045011  0.051974  0.000000      2.000000
 -0.045011  0.000000  0.000000      2.000000
 -0.033758  0.006497  0.000000      2.000000
 -0.022505  0.012993  0.000000      2.000000
 -0.011253  0.019490  0.000000      2.000000
  0.000000  0.038980  0.000000      2.000000
  0.011253  0.045477  0.000000      2.000000
  0.022505  0.051974  0.000000      2.000000
  0.033758  0.058470  0.000000      2.000000
  0.045011  0.064967  0.000000      2.000000
 -0.045011  0.012993  0.000000      2.000000
 -0.033758  0.019490  0.000000      2.000000
 -0.022505  0.025987  0.000000      2.000000
 -0.011253  0.032484  0.000000      2.000000
  0.000000  0.051974  0.000000      2.000000
  0.011253  0.058470  0.000000      2.000000
  0.022505  0.064967  0.000000      2.000000
  0.033758  0.071464  0.000000      2.000000
  0.045011  0.077961  0.000000      2.000000
 -0.045011  0.025987  0.000000      2.000000
 -0.033758  0.032484  0.000000      2.000000
 -0.022505  0.038980  0.000000      2.000000
 -0.011253  0.045477  0.000000      2.000000

 Based on PREC, I would recommend the following setting:
   dimension x,y,z NGX =    72 NGY =   72 NGZ =  150

 SYSTEM =  graphene_metal
 POSCAR =  graphene+Na

 Startparameter for this run:
   NWRITE =      2    write-flag & timer
   PREC   = high      normal or accurate (medium, high low for compatibility)
   ISTART =      1    job   : 0-new  1-cont  2-samecut
   ICHARG =      1    charge: 1-file 2-atom 10-const
   ISPIN  =      1    spin polarized calculation?
   LNONCOLLINEAR =      F non collinear calculations
   LSORBIT =      F    spin-orbit coupling
   INIWAV =      1    electr: 0-lowe 1-rand  2-diag
   LASPH  =      F    aspherical Exc in radial PAW
   METAGGA=      F    non-selfconsistent MetaGGA calc.

 Electronic Relaxation 1
   ENCUT  =  500.0 eV  36.75 Ry    6.06 a.u.  18.00 18.00 36.46*2*pi/ulx,y,z
   ENINI  =  500.0     initial cutoff
   ENAUG  =  644.9 eV  augmentation charge cutoff
   NELM   =    200;   NELMIN=  2; NELMDL=  0     # of ELM steps
   EDIFF  = 0.1E-04   stopping-criterion for ELM
   LREAL  =      T    real-space projection
   NLSPLINE    = F    spline interpolate recip. space projectors
   LCOMPAT=      F    compatible to vasp.4.4
   GGA_COMPAT  = T    GGA compatible to vasp.4.4-vasp.4.6
   LMAXPAW     = -100 max onsite density
   LMAXMIX     =    2 max onsite mixed and CHGCAR
   VOSKOWN=      0    Vosko Wilk Nusair interpolation
   ROPT   =   -0.00040
 Ionic relaxation
   EDIFFG = 0.1E-03   stopping-criterion for IOM
   NSW    =      0    number of steps for IOM
   NBLOCK =      1;   KBLOCK =      1    inner block; outer block
   IBRION =     -1    ionic relax: 0-MD 1-quasi-New 2-CG
   NFREE  =      0    steps in history (QN), initial steepest desc. (CG)
   ISIF   =      2    stress and relaxation
   IWAVPR =     10    prediction:  0-non 1-charg 2-wave 3-comb
   ISYM   =      2    0-nonsym 1-usesym 2-fastsym
   LCORR  =      T    Harris-Foulkes like correction to forces

   POTIM  = 0.5000    time-step for ionic-motion
   TEIN   =    0.0    initial temperature
   TEBEG  =    0.0;   TEEND  =   0.0 temperature during run
   SMASS  =  -3.00    Nose mass-parameter (am)
   estimated Nose-frequenzy (Omega)   =  0.10E-29 period in steps =****** mass=  -0.223E-26a.u.
[...]

  energy without entropy =     -295.07577004  energy(sigma->0) =     -295.07646657

--------------------------------------- Iteration      1(   2)  ---------------------------------------

 eigenvalue-minimisations  :  2586
 total energy-change (2. order) : 0.1081607E-06  ( 0.0000000E+00)
 number of electron     127.9999886 magnetization
 augmentation part        3.0675325 magnetization

 DIPCOR: dipole corrections for dipol
 direction  3 min pos   219,
 dipolmoment           0.000000      0.000000     -0.000107 electrons x Angstroem
 Tr[quadrupol]     -1977.164357

 energy correction for charged system         0.000000 eV
 dipol+quadrupol energy correction           -0.000000 eV
 added-field ion interaction          0.000779 eV  (added to PSCEN)

 Free energy of the ion-electron system (eV)
  alpha Z        PSCENC =        49.40730250
  Ewald energy   TEWEN  =     20664.35300017
  -Hartree energ DENC   =    -24615.48279533
  -exchange      EXHF   =         0.00000000
  -V(xc)+E(xc)   XCENC  =       459.98282163
  PAW double counting   =      2216.69948828    -2258.07321387
  entropy T*S    EENTRO =        -0.00139306
  eigenvalues    EBANDS =     -1520.71186683
  atomic energy  EATOM  =      4708.74949353
  Solvation  Ediel_sol  =         0.00000000
  free energy    TOTEN  =      -295.07716299 eV

  energy without entropy =     -295.07576993  energy(sigma->0) =     -295.07646646

 average (electrostatic) potential at core
  the test charge radii are     0.6991
  (the norm of the test charge is              1.0000)
       1 -58.1889       2 -58.1888       3 -58.1873       4 -58.1873       5 -58.1882
       6 -58.1927       7 -58.1881       8 -58.1873       9 -58.1889      10 -58.1927
      11 -58.1926      12 -58.1889      13 -58.1895      14 -58.1889      15 -58.1882
      16 -58.1889      17 -58.1889      18 -58.1882      19 -58.1889      20 -58.1895
      21 -58.1889      22 -58.1927      23 -58.1926      24 -58.1889      25 -58.1874
      26 -58.1882      27 -58.1927      28 -58.1881      29 -58.1874      30 -58.1873
      31 -58.1889      32 -58.1889

 E-fermi :  -2.7567     XC(G=0):  -2.1503     alpha+bet : -1.9023

 k-point     1 :       0.0000    0.0000    0.0000
  band No.  band energies     occupation
      1     -22.2459      2.00000
      2     -20.7978      2.00000
      3     -20.7957      2.00000
      4     -20.7956      2.00000
      5     -20.7792      2.00000
      6     -20.7792      2.00000
      7     -20.7462      2.00000
      8     -17.9785      2.00000
      9     -17.9784      2.00000
     10     -17.9728      2.00000
     11     -17.9652      2.00000
     12     -17.9652      2.00000
     13     -17.9541      2.00000
     14     -17.0248      2.00000
     15     -17.0132      2.00000
     16     -17.0131      2.00000
     17     -15.9659      2.00000
     18     -15.9658      2.00000
     19     -15.9590      2.00000
     20     -13.2955      2.00000
     21     -13.2875      2.00000
     22     -13.2647      2.00000
     23     -13.2646      2.00000
     24     -13.2594      2.00000
     25     -13.2593      2.00000
     26     -11.7000      2.00000
     27     -11.7000      2.00000
     28     -11.6933      2.00000
     29     -11.6933      2.00000
     30     -11.6630      2.00000
     31     -11.6595      2.00000
     32     -10.3515      2.00000
     33     -10.1748      2.00000
     34     -10.1747      2.00000
     35     -10.1727      2.00000
     36     -10.1725      2.00000
     37     -10.1648      2.00000
     38     -10.1647      2.00000
     39      -9.1574      2.00000
     40      -9.1573      2.00000
     41      -9.1489      2.00000
     42      -8.6401      2.00000
     43      -8.6392      2.00000
     44      -8.6391      2.00000
     45      -8.6263      2.00000
     46      -8.6263      2.00000
     47      -8.6000      2.00000
     48      -7.7953      2.00000
     49      -7.7930      2.00000
     50      -7.7919      2.00000
     51      -7.7919      2.00000
     52      -7.7852      2.00000
     53      -7.7851      2.00000
     54      -5.7867      2.00000
     55      -5.7866      2.00000
     56      -5.4931      2.00000
     57      -5.4930      2.00000
     58      -5.4882      2.00000
     59      -5.4822      2.00000
     60      -5.4821      2.00000
[...]
     82       2.5227      0.00000
     83       2.5858      0.00000
     84       3.0498      0.00000
     85       3.3290      0.00000
     86       3.3296      0.00000
     87       3.3339      0.00000
     88       3.3450      0.00000
     89       3.3606      0.00000
     90       3.4042      0.00000
     91       3.7355      0.00000
     92       3.7317      0.00000
     93       3.7298      0.00000
     94       3.7312      0.00000
     95       3.7263      0.00000
     96       4.4118      0.00000

[...]

 k-point    41 :      -0.1111    0.4444    0.0000
  band No.  band energies     occupation
      1     -22.0097      2.00000
      2     -21.6827      2.00000
      3     -21.3570      2.00000
      4     -20.8720      2.00000
      5     -20.2305      2.00000
      6     -19.7536      2.00000
      7     -19.5962      2.00000
      8     -19.4368      2.00000
      9     -19.1256      2.00000
     10     -18.5068      2.00000
     11     -18.2043      2.00000
     12     -17.9075      2.00000
     13     -17.3269      2.00000
     14     -17.0922      2.00000
     15     -16.5254      2.00000
     16     -16.1128      2.00000
     17     -15.4934      2.00000
     18     -15.0334      2.00000
     19     -14.8564      2.00000
     20     -14.7463      2.00000
     21     -14.7010      2.00000
     22     -14.1230      2.00000
     23     -13.9114      2.00000
     24     -12.8397      2.00000
     25     -12.7247      2.00000
     26     -12.5849      2.00000
     27     -11.9626      2.00000
     28     -11.9558      2.00000
     29     -11.6190      2.00000
     30     -10.9019      2.00000
     31     -10.8852      2.00000
     32     -10.2498      2.00000
     33     -10.0696      2.00000
     34     -10.0322      2.00000
     35      -9.9147      2.00000
     36      -9.8979      2.00000
     37      -9.6822      2.00000
     38      -9.5915      2.00000
     39      -9.5654      2.00000
     40      -9.2982      2.00000
     41      -8.9969      2.00000
     42      -8.9206      2.00000
     43      -8.8743      2.00000
     44      -8.7304      2.00000
     45      -8.6793      2.00000
     46      -8.5512      2.00000
     47      -8.2353      2.00000
     48      -7.9906      2.00000
     49      -7.7770      2.00000
     50      -7.4632      2.00000
     51      -7.4559      2.00000
     52      -7.2681      2.00000
     53      -7.1170      2.00000
     54      -6.8149      2.00000
     55      -6.7538      2.00000
     56      -6.6940      2.00000
     57      -6.2734      2.00000
     58      -6.1644      2.00000
     59      -5.7999      2.00000
     60      -5.5912      2.00000
[...]
     82       2.4076      0.00000
     83       2.4739      0.00000
     84       2.5444      0.00000
     85       2.9270      0.00000
     86       2.9278      0.00000
     87       3.2143      0.00000
     88       3.2849      0.00000
     89       3.3807      0.00000
     90       3.3698      0.00000
     91       3.3836      0.00000
     92       3.6093      0.00000
     93       3.8311      0.00000
     94       3.8411      0.00000
     95       3.9783      0.00000
     96       4.1210      0.00000

 soft charge-density along one line, spin component           1
         0         1         2         3         4         5         6         7         8         9
 total charge-density along one line

------------------------ aborting loop because EDIFF is reached ----------------------------------------

  FORCE on cell =-STRESS in cart. coord.  units (eV):
  Direction    XX          YY          ZZ          XY          YZ          ZX
  Alpha Z    49.40652    49.40652    49.40652
  Ewald   24961.70949 24961.72046-29259.08631     0.00573     0.00251    -0.00460
  Hartree 24433.91579 24433.92097-24252.35974     0.00163     0.00185    -0.00298
  E(xc)    -466.52308  -466.52306  -485.21260     0.00002    -0.00000    -0.00000
  Local  -50772.56427-50772.58055 51864.20489    -0.00709    -0.00430     0.00737
  n-local  -112.41994  -112.42012  -102.63466    -0.00001     0.00009     0.00007
  augment   -12.34491   -12.34426   -11.33149     0.00056     0.00001    -0.00001
  Kinetic  1918.66327  1918.66323  2196.82995     0.00005     0.00025    -0.00034
  Fock        0.00000     0.00000     0.00000     0.00000     0.00000     0.00000
  Total      -0.15712    -0.15682    -0.18345     0.00090     0.00041    -0.00049
  in kB      -0.14907    -0.14878    -0.17404     0.00085     0.00039    -0.00047

 VOLUME and BASIS-vectors are now :
  energy-cutoff  :      500.00
  volume of cell :     1688.76
      direct lattice vectors                 reciprocal lattice vectors
     9.874235153  0.000000000  0.000000000     0.101273667  0.058470379  0.000000000
    -4.937117577  8.551338486  0.000000000     0.000000000  0.116940757  0.000000000
     0.000000000  0.000000000 20.000000000     0.000000000  0.000000000  0.050000000

  length of vectors
     9.874235153  9.874235153 20.000000000     0.116940757  0.116940757  0.050000000

 FORCES acting on ions
    electron-ion (+dipol)            ewald-force                    non-local-force                 convergence-correction
   0.664E-01 -.749E+00 -.111E+01   -.679E-01 0.753E+00 0.110E+01   0.218E-01 0.457E-02 -.234E-02   0.751E-03 -.260E-03 -.160E-03
   -.691E-01 -.747E+00 -.881E+00   0.703E-01 0.750E+00 0.878E+00   -.219E-01 0.461E-02 -.247E-02   -.213E-03 0.609E-05 0.697E-03
   -.172E+00 -.983E-01 -.474E+00   0.171E+00 0.983E-01 0.476E+00   -.837E-02 -.490E-02 0.205E-01   0.792E-03 -.660E-04 -.274E-03
   0.174E+00 -.100E+00 -.139E+01   -.172E+00 0.995E-01 0.139E+01   0.868E-02 -.497E-02 -.114E-01   -.112E-02 0.422E-03 0.600E-05
   -.664E+00 -.385E+00 -.188E+00   0.701E+00 0.407E+00 0.196E+00   0.749E-01 0.433E-01 -.253E-01   -.455E-03 -.111E-03 0.124E-03
   -.271E-02 -.185E+01 0.409E+01   0.196E-02 0.196E+01 -.409E+01   -.166E-03 0.852E-01 0.357E-01   0.947E-03 -.269E-03 0.331E-03
   0.681E+00 -.393E+00 -.202E+01   -.719E+00 0.415E+00 0.204E+01   -.754E-01 0.435E-01 -.803E-01   -.529E-04 0.233E-03 0.392E-03
   -.166E-02 0.198E+00 -.144E+01   0.114E-02 -.198E+00 0.145E+01   0.590E-04 0.974E-02 -.890E-02   0.407E-03 -.120E-03 -.386E-03
   -.614E+00 0.437E+00 -.111E+01   0.617E+00 -.439E+00 0.111E+01   0.150E-01 0.169E-01 -.923E-02   -.255E-03 -.688E-03 -.126E-02
   -.160E+01 0.925E+00 0.374E+01   0.170E+01 -.980E+00 -.374E+01   0.738E-01 -.427E-01 0.268E-01   -.583E-04 0.170E-03 0.174E-03
   0.160E+01 0.926E+00 0.407E+01   -.169E+01 -.980E+00 -.408E+01   -.739E-01 -.425E-01 0.350E-01   0.915E-03 -.391E-03 0.474E-03
   0.612E+00 0.434E+00 -.849E+00   -.614E+00 -.436E+00 0.849E+00   -.149E-01 0.169E-01 -.204E-02   -.196E-03 -.535E-03 -.161E-02
   0.103E-02 -.170E-02 -.500E+00   -.915E-03 0.832E-03 0.489E+00   0.756E-04 -.204E-03 0.160E-01   -.927E-04 0.753E-03 -.169E-02
   -.686E+00 0.313E+00 -.113E+01   0.689E+00 -.315E+00 0.113E+01   -.708E-02 -.214E-01 -.936E-02   0.269E-03 0.333E-03 -.171E-02
   0.152E-02 0.768E+00 -.220E+00   -.140E-02 -.812E+00 0.230E+00   0.121E-04 -.866E-01 -.258E-01   -.180E-03 0.720E-03 -.818E-03
   0.683E+00 0.317E+00 -.111E+01   -.686E+00 -.317E+00 0.111E+01   0.710E-02 -.212E-01 -.224E-02   -.380E-05 -.517E-03 -.954E-03
   -.682E+00 -.316E+00 -.105E+01   0.686E+00 0.317E+00 0.105E+01   -.666E-02 0.213E-01 0.778E-03   -.479E-03 0.126E-03 0.111E-03
   0.988E-03 -.769E+00 -.128E+00   -.199E-02 0.812E+00 0.139E+00   -.451E-03 0.867E-01 -.292E-01   0.674E-03 -.404E-03 0.569E-03
   0.684E+00 -.314E+00 -.127E+01   -.687E+00 0.315E+00 0.126E+01   0.735E-02 0.211E-01 0.374E-02   -.405E-03 0.667E-03 0.632E-03
   -.125E-02 0.244E-03 -.544E+00   0.698E-03 0.439E-03 0.531E+00   -.136E-03 0.126E-03 0.229E-01   0.398E-03 -.406E-03 -.423E-04
   -.615E+00 -.433E+00 -.122E+01   0.618E+00 0.435E+00 0.121E+01   0.152E-01 -.167E-01 -.369E-02   -.761E-03 -.304E-04 -.938E-03
   -.160E+01 -.929E+00 0.388E+01   0.170E+01 0.984E+00 -.388E+01   0.735E-01 0.427E-01 0.259E-01   0.311E-04 0.853E-04 0.214E-03
   0.159E+01 -.919E+00 0.372E+01   -.168E+01 0.973E+00 -.373E+01   -.734E-01 0.422E-01 0.431E-01   0.790E-03 -.695E-04 0.937E-03
   0.614E+00 -.435E+00 -.135E+01   -.616E+00 0.437E+00 0.134E+01   -.147E-01 -.168E-01 0.142E-01   -.685E-03 0.402E-04 -.686E-03
   0.186E-02 -.196E+00 -.644E+00   -.170E-02 0.196E+00 0.649E+00   -.873E-04 -.964E-02 0.104E-01   -.348E-03 -.225E-03 -.154E-02
   -.670E+00 0.387E+00 -.299E+00   0.707E+00 -.408E+00 0.310E+00   0.753E-01 -.435E-01 -.259E-01   0.270E-03 -.107E-03 -.149E-02
   0.325E-02 0.185E+01 0.383E+01   -.398E-02 -.196E+01 -.383E+01   -.367E-03 -.849E-01 0.256E-01   0.246E-03 -.681E-04 0.576E-03
   0.668E+00 0.384E+00 -.910E-01   -.705E+00 -.404E+00 0.104E+00   -.751E-01 -.429E-01 -.282E-01   -.412E-03 -.577E-03 -.115E-02
   -.172E+00 0.985E-01 -.142E+01   0.170E+00 -.981E-01 0.142E+01   -.871E-02 0.497E-02 -.107E-01   0.926E-03 -.192E-03 -.120E-02
   0.172E+00 0.964E-01 -.689E+00   -.171E+00 -.966E-01 0.693E+00   0.840E-02 0.483E-02 0.885E-02   -.558E-03 0.558E-03 -.881E-03
   0.677E-01 0.750E+00 -.112E+01   -.690E-01 -.753E+00 0.112E+01   0.218E-01 -.473E-02 -.139E-01   0.462E-03 0.155E-03 -.135E-02
   -.674E-01 0.749E+00 -.108E+01   0.689E-01 -.753E+00 0.107E+01   -.217E-01 -.484E-02 -.253E-03   -.614E-03 0.148E-03 -.514E-03
   -.146E-02 0.912E-03 0.202E-01   -.117E-13 0.810E-14 0.666E-15   -.782E-04 0.210E-03 -.176E-02   0.987E-03 -.621E-03 -.134E-01

 POSITION                                       TOTAL-FORCE (eV/Angst)
      1.23329      0.71105     10.00000         0.021115      0.008037     -0.006211
      3.70383      0.71105      9.99949        -0.020971      0.007803     -0.005074
      6.17176      0.71283     10.00000        -0.008830     -0.005051      0.022502
      8.63959      0.71282     10.00172         0.008978     -0.005167     -0.002672
     -0.00416      2.84804      9.99579         0.111806      0.064778     -0.017065
      2.46855      2.84552      9.98311         0.000045      0.193995      0.030349
      4.94129      2.84804     10.00000        -0.113987      0.065745     -0.058522
      7.40567      2.85002     10.00218        -0.000031      0.009954     -0.000414
     -1.23613      4.98821      9.99992         0.017452      0.014393     -0.009838
      1.23001      4.99075      9.98367         0.168359     -0.097253      0.023662
      3.70710      4.99075      9.98316        -0.168099     -0.097138      0.030539
      6.17324      4.98821      9.99957        -0.017175      0.014571     -0.003257
     -2.46856      7.12612     10.00001         0.000116     -0.000336      0.003051
     -0.00086      7.12775      9.99979        -0.003519     -0.022149     -0.010887
      2.46856      7.13092      9.99571        -0.000028     -0.129615     -0.017399
      4.93797      7.12775     10.00000         0.003838     -0.022275     -0.006379
     -0.00086      1.42358     10.00000        -0.003140      0.022329     -0.003068
      2.46857      1.42042      9.99551        -0.000758      0.129686     -0.017499
      4.93797      1.42359     10.00076         0.004111      0.021865     -0.002675
      7.40568      1.42522     10.00062        -0.000276      0.000388      0.009924
     -1.23613      3.56313     10.00041         0.017929     -0.014442     -0.008157
      1.23001      3.56059      9.98340         0.167828      0.097748      0.021053
      3.70709      3.56061      9.98431        -0.166553      0.095993      0.032421
      6.17324      3.56314     10.00128        -0.017020     -0.014453      0.003721
     -2.46856      5.70132     10.00000        -0.000259     -0.010031      0.013608
     -0.00418      5.70330      9.99585         0.112722     -0.065086     -0.015785
      2.46857      5.70582      9.98347        -0.000829     -0.193975      0.021260
      4.94129      5.70329      9.99547        -0.112337     -0.064142     -0.016874
     -3.70247      7.83851     10.00160        -0.009303      0.005223     -0.002328
     -1.23465      7.83851     10.00000         0.008753      0.005168      0.011847
      1.23329      7.84029      9.99981         0.020900     -0.008180     -0.015015
      3.70383      7.84029     10.00000        -0.020838     -0.008384     -0.004816
    total drift:                               -0.000552      0.000501      0.005013

  FREE ENERGIE OF THE ION-ELECTRON SYSTEM (eV)
  free  energy   TOTEN  =      -295.07716299 eV

  energy  without entropy=     -295.07576993  energy(sigma->0) =     -295.07646646

 writing wavefunctions