 vasp.5.4.4.18Apr17-6-g9f103f2a35 (build Apr 11 2019 18:12:45) complex

 executed on             LinuxIFC date 2019.08.02  21:56:22

 INCAR:
 POTCAR:   PAW_PBE C 08Apr2002
 POTCAR:    PAW_PBE Na_pv 19Sep2006

 POTCAR:   PAW_PBE C 08Apr2002
   VRHFIN =C: s2p2

   TITEL  = PAW_PBE C 08Apr2002
   POMASS =   12.011; ZVAL   =    4.000    mass and valenz
   ENMAX  =  400.000; ENMIN  =  300.000 eV
   QCUT   =   -5.516; QGAM   =   11.032    optimization parameters

   Description
     l     E      TYP  RCUT    TYP  RCUT
     0   .000     23  1.200
     0   .000     23  1.200
     1   .000     23  1.500
     1  2.500     23  1.500
     2   .000      7  1.500

 POTCAR:    PAW_PBE Na_pv 19Sep2006
   VRHFIN =Na: p6s1

   TITEL  = PAW_PBE Na_pv 19Sep2006
   POMASS =   22.990; ZVAL   =    7.000    mass and valenz
   ENMAX  =  259.561; ENMIN  =  194.671 eV
   QCUT   =   -4.368; QGAM   =    8.735    optimization parameters

   Description
     l     E      TYP  RCUT    TYP  RCUT
     1   .000     23  2.000
     1   .500     23  2.000
     0   .000     23  2.200
     0  2.500     23  2.200
     2  -.100     23  2.200

 Optimization of the real space projectors (new method)

 maximal supplied QI-value         = 25.13
 optimisation between [QCUT,QGAM] = [ 11.31, 28.40] = [ 35.82,225.87] Ry
 Optimized for a Real-space Cutoff    0.93 Angstroem

   l    n(q)    QCUT    max X(q) W(low)/X(q) W(high)/X(q)  e(spline)
   0      8    11.310     5.582    0.36E-04    0.13E-04    0.14E-07
   0      8    11.310    69.432    0.28E-03    0.21E-03    0.11E-06
   1      7    11.310     2.780    0.37E-04    0.49E-04    0.22E-07
   1      7    11.310     4.549    0.27E-03    0.38E-03    0.91E-07
 Optimization of the real space projectors (new method)

 maximal supplied QI-value         = 17.01
 optimisation between [QCUT,QGAM] = [ 11.40, 28.57] = [ 36.36,228.61] Ry
 Optimized for a Real-space Cutoff    1.25 Angstroem

   l    n(q)    QCUT    max X(q) W(low)/X(q) W(high)/X(q)  e(spline)
   1     10    11.395     4.977    0.23E-05    0.17E-05    0.20E-07
   1     10    11.395     7.312    0.34E-03    0.16E-03    0.87E-06
   0     11    11.395    36.258    0.15E-04    0.97E-06    0.30E-07
   0     11    11.395    45.649    0.12E-04    0.89E-05    0.80E-07
 PAW_PBE C 08Apr2002                    :
  PAW_PBE Na_pv 19Sep2006               :

 POSCAR: graphene+K
  positions in direct lattice
  velocities in cartesian coordinates
 exchange correlation table for  LEXCH =        8
   RHO(1)=    0.500       N(1)  =     2000
   RHO(2)=  100.500       N(2)  =     4000

 ion  position               nearest neighbor table
   1  0.166  0.083  0.500-  29 1.42  18 1.42  17 1.42
   2  0.416  0.083  0.500-  30 1.42  19 1.43  18 1.43
   3  0.667  0.083  0.500-  31 1.42  19 1.42  20 1.42
   4  0.917  0.083  0.500-  32 1.42  17 1.42  20 1.42
   5  0.166  0.333  0.500-  21 1.42  22 1.42  17 1.42
   6  0.416  0.333  0.500-  18 1.43  22 1.43  23 1.43
   7  0.667  0.333  0.500-  19 1.43  24 1.43  23 1.43
   8  0.917  0.333  0.500-  21 1.42  24 1.42  20 1.42
   9  0.167  0.583  0.500-  21 1.42  26 1.42  25 1.42
  10  0.416  0.584  0.500-  26 1.42  22 1.43  27 1.43
  11  0.667  0.584  0.500-  28 1.43  27 1.43  23 1.43
  12  0.917  0.584  0.500-  25 1.42  24 1.43  28 1.43
  13  0.167  0.833  0.500-  29 1.42  25 1.42  30 1.42
  14  0.417  0.833  0.500-  31 1.42  26 1.42  30 1.42
  15  0.667  0.834  0.500-  31 1.42  27 1.42  32 1.42
  16  0.917  0.834  0.500-  29 1.42  28 1.42  32 1.42
  17  0.083  0.167  0.500-   4 1.42   5 1.42   1 1.42
  18  0.333  0.166  0.500-   1 1.42   2 1.43   6 1.43
  19  0.583  0.166  0.500-   3 1.42   2 1.43   7 1.43
  20  0.833  0.167  0.500-   4 1.42   8 1.42   3 1.42
  21  0.083  0.417  0.500-   8 1.42   5 1.42   9 1.42
  22  0.333  0.417  0.500-   5 1.42  10 1.43   6 1.43
  23  0.583  0.417  0.499-  11 1.43   6 1.43   7 1.43
  24  0.834  0.417  0.500-   8 1.42  12 1.43   7 1.43
  25  0.084  0.667  0.500-  12 1.42  13 1.42   9 1.42
  26  0.333  0.667  0.500-  10 1.42  14 1.42   9 1.42
  27  0.583  0.667  0.500-  15 1.42  10 1.43  11 1.43
  28  0.834  0.667  0.500-  16 1.42  12 1.43  11 1.43
  29  0.083  0.917  0.500-   1 1.42  16 1.42  13 1.42
  30  0.333  0.916  0.500-   2 1.42  13 1.42  14 1.42
  31  0.583  0.917  0.500-   3 1.42  15 1.42  14 1.42
  32  0.833  0.917  0.500-   4 1.42  15 1.42  16 1.42
  33  0.583  0.417  0.666-

  LATTYP: Found a hexagonal cell.
 ALAT       =     9.8742347976
 C/A-ratio  =     1.5191050555

  Lattice vectors:

 A1 = (   9.8742347986,   0.0000000000,   0.0000000000)
 A2 = (  -4.9371173993,   8.5513381774,   0.0000000000)
 A3 = (   0.0000000000,   0.0000000000,  15.0000000000)

Analysis of symmetry for initial positions (statically):
 Subroutine PRICEL returns:
 Original cell was already a primitive cell.

 Routine SETGRP: Setting up the symmetry group for a
 hexagonal supercell.

 Subroutine GETGRP returns: Found  6 space group operations
 (whereof  2 operations were pure point group operations)
 out of a pool of 24 trial point group operations.

The static configuration has the point symmetry C_1h.
 The point group associated with its full space group is C_3v.

Analysis of symmetry for dynamics (positions and initial velocities):
 Subroutine PRICEL returns:
 Original cell was already a primitive cell.

[...]

The dynamic configuration has the point symmetry C_1h.
 The point group associated with its full space group is C_3v.

Analysis of constrained symmetry for selective dynamics:
 Subroutine PRICEL returns:
 Original cell was already a primitive cell.

[...]

The constrained configuration has the point symmetry C_1h.
 The point group associated with its full space group is C_3v.

Analysis of structural, dynamic, and magnetic symmetry:
 Subroutine PRICEL returns:
 Original cell was already a primitive cell.

 Routine SETGRP: Setting up the symmetry group for a
 hexagonal supercell.

 Subroutine GETGRP returns: Found  6 space group operations
 (whereof  2 operations were pure point group operations)
 out of a pool of 24 trial point group operations.

The magnetic configuration has the point symmetry C_1h.
 The point group associated with its full space group is C_3v.

 Subroutine INISYM returns: Found  6 space group operations
 (whereof  2 operations are pure point group operations),
 and found     1 'primitive' translations

 KPOINTS: Automatic mesh

Automatic generation of k-mesh.
Space group operators:
 irot       det(A)        alpha          n_x          n_y          n_z        tau_x        tau_y        tau_z
    1     1.000000     0.000001     1.000000     0.000000     0.000000     0.000000     0.000000     0.000000
    2    -1.000000   180.000000    -0.500000    -0.866025     0.000000     0.000000     0.000000     0.000000
    3     1.000000   120.000000     0.000000     0.000000    -1.000000     0.000000     0.250000     0.000000
    4     1.000000   120.000000     0.000000     0.000000     1.000000     0.750000     0.000000     0.000000
    5    -1.000000   180.000000     1.000000     0.000000     0.000000     0.750000     0.000000     0.000000
    6    -1.000000   180.000000     0.500000    -0.866025     0.000000     0.000000     0.250000     0.000000

 Subroutine IBZKPT returns following result:

 Found     12 irreducible k-points:

 Following reciprocal coordinates:
            Coordinates               Weight
  0.000000  0.000000  0.000000      1.000000
  0.111111  0.000000  0.000000      6.000000
  0.222222  0.000000  0.000000      6.000000
  0.333333  0.000000  0.000000      6.000000
  0.444444  0.000000  0.000000      6.000000
  0.111111  0.111111  0.000000      6.000000
  0.222222  0.111111  0.000000     12.000000
  0.333333  0.111111  0.000000     12.000000
  0.444444  0.111111  0.000000      6.000000
  0.222222  0.222222  0.000000      6.000000
  0.333333  0.222222  0.000000     12.000000
  0.333333  0.333333  0.000000      2.000000

 Following cartesian coordinates:
            Coordinates               Weight
  0.000000  0.000000  0.000000      1.000000
  0.011253  0.006497  0.000000      6.000000
  0.022505  0.012993  0.000000      6.000000
  0.033758  0.019490  0.000000      6.000000
  0.045011  0.025987  0.000000      6.000000
  0.011253  0.019490  0.000000      6.000000
  0.022505  0.025987  0.000000     12.000000
  0.033758  0.032484  0.000000     12.000000
  0.045011  0.038980  0.000000      6.000000
  0.022505  0.038980  0.000000      6.000000
  0.033758  0.045477  0.000000     12.000000
  0.033758  0.058470  0.000000      2.000000

 SYSTEM =  hBN
 POSCAR =  graphene+K

 Startparameter for this run:
   NWRITE =      2    write-flag & timer
   PREC   = high      normal or accurate (medium, high low for compatibility)
   ISTART =      1    job   : 0-new  1-cont  2-samecut
   ICHARG =      1    charge: 1-file 2-atom 10-const
   ISPIN  =      2    spin polarized calculation?
   LNONCOLLINEAR =      F non collinear calculations
   LSORBIT =      F    spin-orbit coupling
   INIWAV =      1    electr: 0-lowe 1-rand  2-diag
   LASPH  =      F    aspherical Exc in radial PAW
   METAGGA=      F    non-selfconsistent MetaGGA calc.

 Electronic Relaxation 1
   ENCUT  =  500.0 eV  36.75 Ry    6.06 a.u.  18.00 18.00 27.35*2*pi/ulx,y,z
   ENINI  =  500.0     initial cutoff
   ENAUG  =  644.9 eV  augmentation charge cutoff
   NELM   =    200;   NELMIN=  2; NELMDL=  0     # of ELM steps
   EDIFF  = 0.1E-03   stopping-criterion for ELM
   LREAL  =      T    real-space projection
   NLSPLINE    = F    spline interpolate recip. space projectors
   LCOMPAT=      F    compatible to vasp.4.4
   GGA_COMPAT  = T    GGA compatible to vasp.4.4-vasp.4.6
   LMAXPAW     = -100 max onsite density
   LMAXMIX     =    2 max onsite mixed and CHGCAR
   VOSKOWN=      0    Vosko Wilk Nusair interpolation
   ROPT   =   -0.00040  -0.00040
 Ionic relaxation
   EDIFFG = -.5E-01   stopping-criterion for IOM
   NSW    =    500    number of steps for IOM
   NBLOCK =      1;   KBLOCK =    500    inner block; outer block
   IBRION =      2    ionic relax: 0-MD 1-quasi-New 2-CG
   NFREE  =      1    steps in history (QN), initial steepest desc. (CG)
   ISIF   =      2    stress and relaxation
   IWAVPR =     11    prediction:  0-non 1-charg 2-wave 3-comb
   ISYM   =      2    0-nonsym 1-usesym 2-fastsym
   LCORR  =      T    Harris-Foulkes like correction to forces

   POTIM  = 0.5000    time-step for ionic-motion
   TEIN   =    0.0    initial temperature
   TEBEG  =    0.0;   TEEND  =   0.0 temperature during run
   SMASS  =  -3.00    Nose mass-parameter (am)
   estimated Nose-frequenzy (Omega)   =  0.10E-29 period in steps =****** mass=  -0.223E-26a.u.
   SCALEE = 1.0000    scale energy and forces
   NPACO  =    256;   APACO  = 16.0  distance and # of slots for P.C.
   PSTRESS=    0.0 pullay stress

  Mass of Ions in am
   POMASS =  12.01 22.99
  Ionic Valenz
   ZVAL   =   4.00  7.00
  Atomic Wigner-Seitz radii
  virtual crystal weights
   VCA    =   1.00  1.00
   NELECT =     135.0000    total number of electrons
   NUPDOWN=      -1.0000    fix difference up-down

 DOS related values:
   EMIN   =  10.00;   EMAX   =-10.00  energy-range for DOS
   EFERMI =   0.00
[...]
      3.70284      3.56306      9.99372         0.000000     -0.000000      0.063982
    total drift:                               -0.000759      0.000440      0.004172

  FREE ENERGIE OF THE ION-ELECTRON SYSTEM (eV)
  free  energy   TOTEN  =      -295.70428688 eV

  energy  without entropy=     -295.68761536  energy(sigma->0) =     -295.69595112

 ***ISIF             0  ****Zhiping

[...]

 d Force = 0.8228546E-04[-0.123E-02, 0.140E-02]  d Energy =-0.5618124E-03 0.644E-03
 d Force = 0.2195645E+01[ 0.219E+01, 0.220E+01]  d Ewald  = 0.2195644E+01 0.140E-05

 ***ISIF             0  ****Zhiping
 Steepest descent step on ions:
 trial-energy change:    0.000562  1 .order   -0.000082   -0.001398    0.001234
  (g-gl).g = 0.140E-02      g.g   = 0.140E-02  gl.gl    = 0.000E+00
 g(Force)  = 0.140E-02   g(Stress)= 0.000E+00 ortho     = 0.000E+00
 gamma     =   0.00000
 trial     =   1.00000
 opt step  =   0.53126  (harmonic =   0.53126) maximal distance =0.00163981
 next E    =  -295.704658   (d E  =  -0.00037)

[...]

 d Force = 0.2709022E-03[-0.366E-04, 0.578E-03]  d Energy = 0.5948593E-03-0.324E-03
 d Force =-0.1028913E+01[-0.103E+01,-0.103E+01]  d Ewald  =-0.1028912E+01-0.144E-06

 ***ISIF             0  ****Zhiping

[...]

 eigenvalue-minimisations  :  6120
 total energy-change (2. order) : 0.5358698E-03  (-0.1587188E-03)
 number of electron     134.9999890 magnetization       0.3980085
 augmentation part        7.5560318 magnetization      -0.0014967

[...]

 Broyden mixing:
  rms(total) = 0.22434E-02    rms(broyden)= 0.22428E-02
  rms(prec ) = 0.24980E-02
  weight for this iteration     100.00

 eigenvalues of (default mixing * dielectric matrix)
  average eigenvalue GAMMA=   1.0656
  1.0656

[...]

--------------------------------------- Iteration      4(   3)  ---------------------------------------

 eigenvalue-minimisations  :  6096
 total energy-change (2. order) :-0.8815403E-04  (-0.3874898E-04)
 number of electron     134.9999890 magnetization       0.3980085
 augmentation part        7.5560318 magnetization      -0.0014967

 DIPCOR: dipole corrections for dipol
 direction  3 min pos    16,
 dipolmoment           0.000000      0.000000     -0.486529 electrons x Angstroem
 Tr[quadrupol]     -2214.822413

 energy correction for charged system         0.000000 eV
 dipol+quadrupol energy correction           -0.016946 eV
 added-field ion interaction        -11.379015 eV  (added to PSCEN)

 Free energy of the ion-electron system (eV)
  alpha Z        PSCENC =        62.72460532
  Ewald energy   TEWEN  =     13664.35442938
  -Hartree energ DENC   =    -18302.37886031
  -exchange      EXHF   =         0.00000000
  -V(xc)+E(xc)   XCENC  =       485.31882298
  PAW double counting   =      2689.10512200    -2819.00697590
  entropy T*S    EENTRO =        -0.01664270
  eigenvalues    EBANDS =     -1550.59645961
  atomic energy  EATOM  =      5474.79130437
  Solvation  Ediel_sol  =         0.00000000
  free energy    TOTEN  =      -295.70465448 eV

  energy without entropy =     -295.68801178  energy(sigma->0) =     -295.69633313

 average (electrostatic) potential at core
  the test charge radii are     0.6991  0.9254
  (the norm of the test charge is              1.0000)
       1 -57.0334       2 -57.0922       3 -57.0334       4 -56.9940       5 -57.0334
       6 -57.2215       7 -57.2215       8 -57.0334       9 -57.0143      10 -57.0922
      11 -57.2215      12 -57.0922      13 -57.0143      14 -57.0143      15 -57.0334
      16 -57.0334      17 -57.0277      18 -57.1237      19 -57.1237      20 -57.0277
      21 -57.0154      22 -57.1237      23 -57.2880      24 -57.1237      25 -57.0099
      26 -57.0099      27 -57.1237      28 -57.1237      29 -57.0154      30 -57.0099
      31 -57.0154      32 -57.0277      33 -53.4003

 E-fermi :  -0.8959     XC(G=0):  -3.1015     alpha+bet : -2.7585

[...]

 spin component 2

[...]

 k-point    12 :       0.3333    0.3333    0.0000
  band No.  band energies     occupation
      1     -27.5793      1.00000
      2     -27.5792      1.00000
      3     -27.5513      1.00000
      4     -20.7611      1.00000
      5     -20.6431      1.00000
      6     -20.6427      1.00000
      7     -19.2338      1.00000
      8     -19.2224      1.00000
      9     -19.2194      1.00000
     10     -17.8566      1.00000
     11     -17.8449      1.00000
     12     -17.8199      1.00000
     13     -17.7764      1.00000
     14     -17.7647      1.00000
     15     -17.7621      1.00000
     16     -15.5328      1.00000
     17     -15.5300      1.00000
     18     -15.4807      1.00000
     19     -14.4905      1.00000
     20     -14.4833      1.00000
     21     -14.4828      1.00000
     22     -14.2543      1.00000
     23     -14.2537      1.00000
     24     -12.3010      1.00000
     25     -12.3004      1.00000
     26     -12.2969      1.00000
     27     -12.2921      1.00000
     28     -12.2667      1.00000
     29     -12.2660      1.00000
     30     -12.1796      1.00000
     31      -9.8985      1.00000
     32      -9.8729      1.00000
     33      -9.8721      1.00000
     34      -9.4238      1.00000
     35      -9.4210      1.00000
     36      -9.4155      1.00000
     37      -8.9177      1.00000
     38      -8.6930      1.00000
     39      -8.6918      1.00000
     40      -8.2544      1.00000
     41      -8.2510      1.00000
     42      -8.2457      1.00000
     43      -8.1984      1.00000
     44      -8.1953      1.00000
     45      -8.1888      1.00000
     46      -8.0563      1.00000
     47      -8.0561      1.00000
     48      -8.0540      1.00000
     49      -7.0855      1.00000
     50      -7.0507      1.00000
     51      -7.0393      1.00000
     52      -6.3974      1.00000
     53      -6.3967      1.00000
     54      -6.3401      1.00000
     55      -5.7153      1.00000
     56      -5.7137      1.00000
     57      -5.6779      1.00000
     58      -5.6044      1.00000
     59      -5.5786      1.00000
     60      -5.5058      1.00000
[...]
    106       5.6492      0.00000
    107       5.6504      0.00000
    108       5.7347      0.00000
    109       5.8637      0.00000
    110       5.8649      0.00000
    111       6.4884      0.00000
    112       6.4899      0.00000
    113       6.4905      0.00000
    114       6.5737      0.00000
    115       6.5798      0.00000
    116       6.5969      0.00000
    117       6.7687      0.00000
    118       6.7886      0.00000
    119       6.8131      0.00000
    120       7.0401      0.00000

[...]

 soft charge-density along one line, spin component           2
         0         1         2         3         4         5         6         7         8         9
 total charge-density along one line

------------------------ aborting loop because EDIFF is reached ----------------------------------------

  FORCE on cell =-STRESS in cart. coord.  units (eV):
  Direction    XX          YY          ZZ          XY          YZ          ZX
  Alpha Z    74.12057    74.12057    74.12057
  Ewald   18038.28435 18038.28535-22412.22727     0.00087    -0.00000     0.00000
  Hartree 17846.44547 17846.44548-17390.55786     0.00001    -0.00000     0.00000
  E(xc)    -505.00229  -505.00250  -523.30009    -0.00018     0.00000    -0.00001
  Local  -37316.60321-37316.60456 38099.41488    -0.00117     0.00000    -0.00000
  n-local  -136.39714  -136.53225  -127.89692     0.20655    -0.00076    -0.00163
  augment    29.52640    29.52636    30.82404    -0.00003    -0.00003     0.00004
  Kinetic  1972.69544  1972.22140  2249.57241    -0.85756    -0.00235    -0.00259
  Fock        0.00000     0.00000     0.00000     0.00000     0.00000     0.00000
  Total       2.76471     2.76471    -0.05024    -0.00000     0.00000     0.00000
  in kB       3.49729     3.49729    -0.06355    -0.00000     0.00000     0.00000

 VOLUME and BASIS-vectors are now :
  energy-cutoff  :      500.00
  volume of cell :     1266.57
      direct lattice vectors                 reciprocal lattice vectors
     9.874234799  0.000000000  0.000000000     0.101273670  0.058470381  0.000000000
    -4.937117399  8.551338177  0.000000000     0.000000000  0.116940762  0.000000000
     0.000000000  0.000000000 15.000000000     0.000000000  0.000000000  0.066666667

  length of vectors
     9.874234799  9.874234798 15.000000000     0.116940762  0.116940762  0.066666667

 FORCES acting on ions
    electron-ion (+dipol)            ewald-force                    non-local-force                 convergence-correction
   0.579E+01 0.592E+01 0.136E+02   -.595E+01 -.603E+01 -.137E+02   0.142E+00 0.912E-01 0.116E+00   0.180E-02 -.746E-03 -.754E-03
   -.441E-04 0.141E+02 0.201E+02   -.424E-04 -.143E+02 -.204E+02   0.000E+00 0.241E+00 0.271E+00   0.954E-07 -.198E-02 -.306E-03
   -.579E+01 0.592E+01 0.136E+02   0.595E+01 -.603E+01 -.137E+02   -.142E+00 0.912E-01 0.116E+00   -.180E-02 -.746E-03 -.754E-03
   -.421E-04 0.243E-04 0.103E+02   -.445E-04 0.257E-04 -.104E+02   -.520E-17 0.520E-17 0.748E-01   0.176E-06 -.102E-06 0.139E-02
   0.802E+01 0.206E+01 0.136E+02   -.820E+01 -.214E+01 -.137E+02   0.150E+00 0.769E-01 0.116E+00   0.253E-03 0.193E-02 -.754E-03
   0.170E+02 0.981E+01 0.425E+02   -.174E+02 -.101E+02 -.432E+02   0.436E+00 0.252E+00 0.736E+00   0.409E-03 0.236E-03 0.834E-02
   -.170E+02 0.981E+01 0.425E+02   0.174E+02 -.101E+02 -.432E+02   -.436E+00 0.252E+00 0.736E+00   -.409E-03 0.236E-03 0.834E-02
   -.802E+01 0.206E+01 0.136E+02   0.820E+01 -.214E+01 -.137E+02   -.150E+00 0.769E-01 0.116E+00   -.254E-03 0.193E-02 -.754E-03
   -.414E-04 -.165E+01 0.109E+02   -.451E-04 0.165E+01 -.110E+02   0.000E+00 -.954E-02 0.852E-01   -.174E-06 0.125E-02 0.557E-03
   0.122E+02 -.705E+01 0.201E+02   -.124E+02 0.716E+01 -.204E+02   0.209E+00 -.121E+00 0.271E+00   -.171E-02 0.990E-03 -.306E-03
   -.459E-04 -.196E+02 0.425E+02   -.403E-04 0.201E+02 -.432E+02   0.694E-17 -.503E+00 0.736E+00   -.760E-07 -.473E-03 0.834E-02
   -.122E+02 -.705E+01 0.201E+02   0.124E+02 0.716E+01 -.204E+02   -.209E+00 -.121E+00 0.271E+00   0.171E-02 0.990E-03 -.306E-03
   -.143E+01 0.826E+00 0.109E+02   0.143E+01 -.824E+00 -.110E+02   -.827E-02 0.477E-02 0.852E-01   0.108E-02 -.624E-03 0.557E-03
   0.143E+01 0.826E+00 0.109E+02   -.143E+01 -.824E+00 -.110E+02   0.827E-02 0.477E-02 0.852E-01   -.108E-02 -.624E-03 0.557E-03
   0.223E+01 -.798E+01 0.136E+02   -.225E+01 0.817E+01 -.137E+02   0.826E-02 -.168E+00 0.116E+00   -.155E-02 -.118E-02 -.754E-03
   -.223E+01 -.798E+01 0.136E+02   0.225E+01 0.817E+01 -.137E+02   -.826E-02 -.168E+00 0.116E+00   0.155E-02 -.119E-02 -.754E-03
   0.488E+01 0.281E+01 0.121E+02   -.493E+01 -.285E+01 -.122E+02   0.709E-01 0.409E-01 0.110E+00   -.139E-02 -.804E-03 0.180E-03
   0.809E+01 0.145E+02 0.235E+02   -.820E+01 -.148E+02 -.238E+02   0.117E+00 0.328E+00 0.322E+00   -.168E-02 0.291E-03 0.126E-02
   -.809E+01 0.145E+02 0.235E+02   0.820E+01 -.148E+02 -.238E+02   -.117E+00 0.328E+00 0.322E+00   0.168E-02 0.291E-03 0.126E-02
   -.488E+01 0.281E+01 0.121E+02   0.493E+01 -.285E+01 -.122E+02   -.709E-01 0.409E-01 0.110E+00   0.139E-02 -.804E-03 0.180E-03
   -.384E-05 -.152E-01 0.116E+02   0.437E-04 0.584E-01 -.117E+02   0.304E-17 -.397E-01 0.937E-01   0.255E-06 -.201E-02 -.534E-03
   0.166E+02 -.250E+00 0.235E+02   -.170E+02 0.317E+00 -.238E+02   0.343E+00 -.623E-01 0.322E+00   -.587E-03 -.160E-02 0.126E-02
   -.328E-05 0.330E-05 0.713E+02   0.435E-04 -.251E-04 -.728E+02   -.434E-17 0.000E+00 0.149E+01   -.566E-07 0.327E-07 0.134E-01
   -.166E+02 -.250E+00 0.235E+02   0.170E+02 0.317E+00 -.238E+02   -.343E+00 -.623E-01 0.322E+00   0.587E-03 -.160E-02 0.126E-02
   -.514E+01 -.297E+01 0.119E+02   0.527E+01 0.304E+01 -.120E+02   -.108E+00 -.621E-01 0.910E-01   -.102E-02 -.590E-03 0.460E-03
   0.514E+01 -.297E+01 0.119E+02   -.527E+01 0.304E+01 -.120E+02   0.108E+00 -.621E-01 0.910E-01   0.102E-02 -.590E-03 0.460E-03
   0.852E+01 -.143E+02 0.235E+02   -.875E+01 0.145E+02 -.238E+02   0.225E+00 -.266E+00 0.322E+00   0.109E-02 0.131E-02 0.126E-02
   -.852E+01 -.143E+02 0.235E+02   0.875E+01 0.145E+02 -.238E+02   -.225E+00 -.266E+00 0.322E+00   -.109E-02 0.131E-02 0.126E-02
   -.132E-01 0.762E-02 0.116E+02   0.507E-01 -.293E-01 -.117E+02   -.344E-01 0.199E-01 0.937E-01   -.174E-02 0.101E-02 -.534E-03
   -.409E-05 0.594E+01 0.119E+02   0.438E-04 -.608E+01 -.120E+02   0.000E+00 0.124E+00 0.910E-01   -.290E-06 0.118E-02 0.460E-03
   0.132E-01 0.762E-02 0.116E+02   -.506E-01 -.293E-01 -.117E+02   0.344E-01 0.199E-01 0.937E-01   0.174E-02 0.101E-02 -.534E-03
   -.391E-05 -.563E+01 0.121E+02   0.438E-04 0.570E+01 -.122E+02   -.607E-17 -.819E-01 0.110E+00   -.137E-06 0.161E-02 0.180E-03
   -.670E-05 0.359E-05 -.642E+03   0.393E-06 -.227E-06 0.640E+03   -.108E-18 -.217E-18 0.271E+01   -.417E-06 0.241E-06 -.134E-03
   -.753E-03 0.437E-03 -.111E+02   0.265E-14 0.123E-12 -.227E-12   0.979E-16 0.152E-15 0.111E+02   -.431E-06 0.249E-06 0.437E-01

 POSITION                                       TOTAL-FORCE (eV/Angst)
      1.23311      0.71187      7.50093        -0.015652     -0.022375      0.007758
      3.70284      0.71010      7.50055         0.000000      0.006546      0.005563
      6.17256      0.71187      7.50093         0.015652     -0.022375      0.007758
      8.63996      0.71261      7.49964         0.000000     -0.000000     -0.002557
     -0.00123      2.84981      7.50093        -0.027203     -0.002367      0.007758
      2.46469      2.84821      7.49768         0.018592      0.010734     -0.024125
      4.94099      2.84821      7.49768        -0.018592      0.010734     -0.024125
      7.40690      2.84981      7.50093         0.027203     -0.002367      0.007758
     -1.23428      4.98822      7.49996        -0.000000     -0.012207      0.000546
      1.23210      4.98954      7.50055         0.005669     -0.003273      0.005563
      3.70284      4.99275      7.49768         0.000000     -0.021468     -0.024125
      6.17358      4.98954      7.50055        -0.005669     -0.003273      0.005563
     -2.46861      7.12615      7.49996        -0.010571      0.006103      0.000546
      0.00005      7.12615      7.49996         0.010571      0.006103      0.000546
      2.46850      7.12750      7.50093        -0.011552      0.024742      0.007758
      4.93718      7.12750      7.50093         0.011552      0.024742      0.007758
     -0.00064      1.42485      7.49984         0.011508      0.006644      0.002694
      2.46737      1.42194      7.50188        -0.000315     -0.006328     -0.005161
      4.93830      1.42194      7.50188         0.000315     -0.006328     -0.005161
      7.40632      1.42485      7.49984        -0.011508      0.006644      0.002694
     -1.23428      3.56365      7.50012         0.000000      0.001485      0.009177
      1.23084      3.56367      7.50188        -0.005638      0.002891     -0.005161
      3.70284      3.56306      7.48076         0.000000     -0.000000     -0.044837
      6.17483      3.56367      7.50188         0.005638      0.002891     -0.005161
     -2.46776      5.70136      7.50013         0.015177      0.008762      0.003464
     -0.00080      5.70136      7.50013        -0.015177      0.008762      0.003464
      2.46631      5.70356      7.50188        -0.005323      0.003437     -0.005161
      4.93936      5.70356      7.50188         0.005323      0.003437     -0.005161
     -3.70232      7.83843      7.50012         0.001286     -0.000742      0.009177
     -1.23428      7.83780      7.50013         0.000000     -0.017525      0.003464
      1.23376      7.83843      7.50012        -0.001286     -0.000742      0.009177
      3.70284      7.83947      7.49984        -0.000000     -0.013288      0.002694
      3.70284      3.56306      9.99785         0.000000     -0.000000      0.039856
    total drift:                               -0.000753      0.000437     -0.010164

  FREE ENERGIE OF THE ION-ELECTRON SYSTEM (eV)
  free  energy   TOTEN  =      -295.70465448 eV

  energy  without entropy=     -295.68801178  energy(sigma->0) =     -295.69633313

 d Force = 0.4585611E-03[ 0.302E-03, 0.615E-03]  d Energy = 0.3345503E-03 0.124E-03
 d Force = 0.1752506E+01[ 0.175E+01, 0.175E+01]  d Ewald  = 0.1752504E+01 0.161E-05

 ***ISIF             0  ****Zhiping
 Conjugate gradient step on ions:
 trial-energy change:   -0.000335  1 .order   -0.000459   -0.000615   -0.000302
  (g-gl).g = 0.156E-02      g.g   = 0.164E-02  gl.gl    = 0.140E-02
 g(Force)  = 0.164E-02   g(Stress)= 0.000E+00 ortho     = 0.780E-04
 gamma     =   1.11703
 trial     =   0.35607
 opt step  =   0.69984  (harmonic =   0.69984) maximal distance =0.00488203
 next E    =  -295.704924   (d E  =  -0.00060)

 reached required accuracy - stopping structural energy minimisation
 writing wavefunctions