 vasp.5.4.4.18Apr17-6-g9f103f2a35 (build Apr 11 2019 18:12:45) complex

 executed on             LinuxIFC date 2019.07.29  20:32:34

 INCAR:
 POTCAR:   PAW_PBE C 08Apr2002
 POTCAR:    PAW_PBE Na_pv 19Sep2006

 POTCAR:   PAW_PBE C 08Apr2002
   VRHFIN =C: s2p2

   TITEL  = PAW_PBE C 08Apr2002
   POMASS =   12.011; ZVAL   =    4.000    mass and valenz
   ENMAX  =  400.000; ENMIN  =  300.000 eV
   QCUT   =   -5.516; QGAM   =   11.032    optimization parameters

   Description
     l     E      TYP  RCUT    TYP  RCUT
     0   .000     23  1.200
     0   .000     23  1.200
     1   .000     23  1.500
     1  2.500     23  1.500
     2   .000      7  1.500

 POTCAR:    PAW_PBE Na_pv 19Sep2006
   VRHFIN =Na: p6s1

   TITEL  = PAW_PBE Na_pv 19Sep2006
   POMASS =   22.990; ZVAL   =    7.000    mass and valenz
   ENMAX  =  259.561; ENMIN  =  194.671 eV
   QCUT   =   -4.368; QGAM   =    8.735    optimization parameters

   Description
     l     E      TYP  RCUT    TYP  RCUT
     1   .000     23  2.000
     1   .500     23  2.000
     0   .000     23  2.200
     0  2.500     23  2.200
     2  -.100     23  2.200

 Optimization of the real space projectors (new method)

 maximal supplied QI-value         = 25.13
 optimisation between [QCUT,QGAM] = [ 11.31, 28.40] = [ 35.82,225.87] Ry
 Optimized for a Real-space Cutoff    0.93 Angstroem

   l    n(q)    QCUT    max X(q) W(low)/X(q) W(high)/X(q)  e(spline)
   0      8    11.310     5.582    0.36E-04    0.13E-04    0.14E-07
   0      8    11.310    69.432    0.28E-03    0.21E-03    0.11E-06
   1      7    11.310     2.780    0.37E-04    0.49E-04    0.22E-07
   1      7    11.310     4.549    0.27E-03    0.38E-03    0.91E-07
 Optimization of the real space projectors (new method)

 maximal supplied QI-value         = 17.01
 optimisation between [QCUT,QGAM] = [ 11.40, 28.57] = [ 36.36,228.61] Ry
 Optimized for a Real-space Cutoff    1.25 Angstroem

   l    n(q)    QCUT    max X(q) W(low)/X(q) W(high)/X(q)  e(spline)
   1     10    11.395     4.977    0.23E-05    0.17E-05    0.20E-07
   1     10    11.395     7.312    0.34E-03    0.16E-03    0.87E-06
   0     11    11.395    36.258    0.15E-04    0.97E-06    0.30E-07
   0     11    11.395    45.649    0.12E-04    0.89E-05    0.80E-07
 PAW_PBE C 08Apr2002                    :
  PAW_PBE Na_pv 19Sep2006               :

 POSCAR: graphene+Na
  positions in direct lattice
  velocities in cartesian coordinates
 exchange correlation table for  LEXCH =        8
   RHO(1)=    0.500       N(1)  =     2000
   RHO(2)=  100.500       N(2)  =     4000

 ion  position               nearest neighbor table
   1  0.166  0.083  0.500-  29 1.42  18 1.42  17 1.43
   2  0.417  0.083  0.500-  30 1.42  18 1.42  19 1.43
   3  0.667  0.083  0.500-  19 1.42  31 1.42  20 1.42
   4  0.917  0.083  0.500-  17 1.42  32 1.42  20 1.42
   5  0.166  0.333  0.500-  17 1.42  21 1.42  22 1.43
   6  0.416  0.333  0.499-  18 1.43  22 1.43  23 1.43
   7  0.667  0.333  0.500-  24 1.42  19 1.42  23 1.43
   8  0.917  0.333  0.500-  24 1.42  21 1.42  20 1.42
   9  0.166  0.583  0.500-  25 1.42  26 1.42  21 1.43
  10  0.416  0.584  0.499-  26 1.43  27 1.43  22 1.43
  11  0.667  0.584  0.499-  28 1.43  27 1.43  23 1.43
  12  0.917  0.583  0.500-  25 1.42  28 1.42  24 1.43
  13  0.167  0.833  0.500-  25 1.42  29 1.42  30 1.42
  14  0.417  0.834  0.500-  30 1.42  26 1.42  31 1.43
  15  0.667  0.834  0.500-  32 1.42  31 1.42  27 1.43
  16  0.917  0.834  0.500-  29 1.42  28 1.42  32 1.43
  17  0.083  0.166  0.500-   4 1.42   5 1.42   1 1.43
  18  0.333  0.166  0.500-   2 1.42   1 1.42   6 1.43
  19  0.583  0.166  0.500-   3 1.42   7 1.42   2 1.43
  20  0.833  0.167  0.500-   3 1.42   4 1.42   8 1.42
  21  0.083  0.417  0.500-   8 1.42   5 1.42   9 1.43
  22  0.333  0.416  0.499-   5 1.43   6 1.43  10 1.43
  23  0.584  0.416  0.499-   7 1.43  11 1.43   6 1.43
  24  0.834  0.417  0.500-   8 1.42   7 1.42  12 1.43
  25  0.083  0.667  0.500-   9 1.42  12 1.42  13 1.42
  26  0.333  0.667  0.500-  14 1.42   9 1.42  10 1.43
  27  0.584  0.667  0.499-  15 1.43  11 1.43  10 1.43
  28  0.834  0.667  0.500-  12 1.42  16 1.42  11 1.43
  29  0.083  0.917  0.500-   1 1.42  16 1.42  13 1.42
  30  0.333  0.917  0.500-  14 1.42   2 1.42  13 1.42
  31  0.583  0.917  0.500-   3 1.42  15 1.42  14 1.43
  32  0.834  0.917  0.500-   4 1.42  15 1.42  16 1.43
  33  0.500  0.500  0.615-

  LATTYP: Found a hexagonal cell.
 ALAT       =     9.8742351532
 C/A-ratio  =     2.0254733344

  Lattice vectors:

 A1 = (   9.8742351532,   0.0000000000,   0.0000000000)
 A2 = (  -4.9371175766,   8.5513384856,   0.0000000000)
 A3 = (   0.0000000000,   0.0000000000,  20.0000000000)

Analysis of symmetry for initial positions (statically):
 Subroutine PRICEL returns:
 Original cell was already a primitive cell.

 Routine SETGRP: Setting up the symmetry group for a
 hexagonal supercell.

 Subroutine GETGRP returns: Found  1 space group operations
 (whereof  1 operations were pure point group operations)
 out of a pool of 24 trial point group operations.

The static configuration has the point symmetry C_1 .

Analysis of symmetry for dynamics (positions and initial velocities):
 Subroutine PRICEL returns:
 Original cell was already a primitive cell.

[...]

The dynamic configuration has the point symmetry C_1 .

Analysis of constrained symmetry for selective dynamics:
 Subroutine PRICEL returns:
 Original cell was already a primitive cell.

[...]

The constrained configuration has the point symmetry C_1 .

Analysis of structural, dynamic, and magnetic symmetry:
 Subroutine PRICEL returns:
 Original cell was already a primitive cell.

 Routine SETGRP: Setting up the symmetry group for a
 hexagonal supercell.

 Subroutine GETGRP returns: Found  1 space group operations
 (whereof  1 operations were pure point group operations)
 out of a pool of 24 trial point group operations.

The magnetic configuration has the point symmetry C_1 .

 Subroutine INISYM returns: Found  1 space group operations
 (whereof  1 operations are pure point group operations),
 and found     1 'primitive' translations

 KPOINTS: Automatic mesh

Automatic generation of k-mesh.
Space group operators:
 irot       det(A)        alpha          n_x          n_y          n_z        tau_x        tau_y        tau_z
    1     1.000000     0.000000     1.000000     0.000000     0.000000     0.000000     0.000000     0.000000

 Subroutine IBZKPT returns following result:

 Found     41 irreducible k-points:

 Following reciprocal coordinates:
            Coordinates               Weight
  0.000000  0.000000  0.000000      1.000000
  0.111111  0.000000  0.000000      2.000000
  0.222222  0.000000  0.000000      2.000000
  0.333333  0.000000  0.000000      2.000000
  0.444444  0.000000  0.000000      2.000000
  0.000000  0.111111  0.000000      2.000000
  0.111111  0.111111  0.000000      2.000000
  0.222222  0.111111  0.000000      2.000000
  0.333333  0.111111  0.000000      2.000000
  0.444444  0.111111  0.000000      2.000000
 -0.444444  0.111111  0.000000      2.000000
 -0.333333  0.111111  0.000000      2.000000
 -0.222222  0.111111  0.000000      2.000000
 -0.111111  0.111111  0.000000      2.000000
  0.000000  0.222222  0.000000      2.000000
  0.111111  0.222222  0.000000      2.000000
  0.222222  0.222222  0.000000      2.000000
  0.333333  0.222222  0.000000      2.000000
  0.444444  0.222222  0.000000      2.000000
 -0.444444  0.222222  0.000000      2.000000
 -0.333333  0.222222  0.000000      2.000000
 -0.222222  0.222222  0.000000      2.000000
 -0.111111  0.222222  0.000000      2.000000
  0.000000  0.333333  0.000000      2.000000
  0.111111  0.333333  0.000000      2.000000
  0.222222  0.333333  0.000000      2.000000
  0.333333  0.333333  0.000000      2.000000
  0.444444  0.333333  0.000000      2.000000
 -0.444444  0.333333  0.000000      2.000000
 -0.333333  0.333333  0.000000      2.000000
 -0.222222  0.333333  0.000000      2.000000
 -0.111111  0.333333  0.000000      2.000000
  0.000000  0.444444  0.000000      2.000000
  0.111111  0.444444  0.000000      2.000000
  0.222222  0.444444  0.000000      2.000000
  0.333333  0.444444  0.000000      2.000000
  0.444444  0.444444  0.000000      2.000000
 -0.444444  0.444444  0.000000      2.000000
 -0.333333  0.444444  0.000000      2.000000
 -0.222222  0.444444  0.000000      2.000000
 -0.111111  0.444444  0.000000      2.000000

 Following cartesian coordinates:
            Coordinates               Weight
  0.000000  0.000000  0.000000      1.000000
  0.011253  0.006497  0.000000      2.000000
  0.022505  0.012993  0.000000      2.000000
  0.033758  0.019490  0.000000      2.000000
  0.045011  0.025987  0.000000      2.000000
  0.000000  0.012993  0.000000      2.000000
  0.011253  0.019490  0.000000      2.000000
  0.022505  0.025987  0.000000      2.000000
  0.033758  0.032484  0.000000      2.000000
  0.045011  0.038980  0.000000      2.000000
 -0.045011 -0.012993  0.000000      2.000000
 -0.033758 -0.006497  0.000000      2.000000
 -0.022505 -0.000000  0.000000      2.000000
 -0.011253  0.006497  0.000000      2.000000
  0.000000  0.025987  0.000000      2.000000
  0.011253  0.032484  0.000000      2.000000
  0.022505  0.038980  0.000000      2.000000
  0.033758  0.045477  0.000000      2.000000
  0.045011  0.051974  0.000000      2.000000
 -0.045011  0.000000  0.000000      2.000000
 -0.033758  0.006497  0.000000      2.000000
 -0.022505  0.012993  0.000000      2.000000
 -0.011253  0.019490  0.000000      2.000000
  0.000000  0.038980  0.000000      2.000000
  0.011253  0.045477  0.000000      2.000000
  0.022505  0.051974  0.000000      2.000000
  0.033758  0.058470  0.000000      2.000000
  0.045011  0.064967  0.000000      2.000000
 -0.045011  0.012993  0.000000      2.000000
 -0.033758  0.019490  0.000000      2.000000
 -0.022505  0.025987  0.000000      2.000000
 -0.011253  0.032484  0.000000      2.000000
  0.000000  0.051974  0.000000      2.000000
  0.011253  0.058470  0.000000      2.000000
  0.022505  0.064967  0.000000      2.000000
  0.033758  0.071464  0.000000      2.000000
  0.045011  0.077961  0.000000      2.000000
 -0.045011  0.025987  0.000000      2.000000
 -0.033758  0.032484  0.000000      2.000000
 -0.022505  0.038980  0.000000      2.000000
 -0.011253  0.045477  0.000000      2.000000

 Based on PREC, I would recommend the following setting:
   dimension x,y,z NGX =    72 NGY =   72 NGZ =  150

 SYSTEM =  graphene_metal
 POSCAR =  graphene+Na

 Startparameter for this run:
   NWRITE =      2    write-flag & timer
   PREC   = high      normal or accurate (medium, high low for compatibility)
   ISTART =      1    job   : 0-new  1-cont  2-samecut
   ICHARG =      1    charge: 1-file 2-atom 10-const
   ISPIN  =      2    spin polarized calculation?
   LNONCOLLINEAR =      F non collinear calculations
   LSORBIT =      F    spin-orbit coupling
   INIWAV =      1    electr: 0-lowe 1-rand  2-diag
   LASPH  =      F    aspherical Exc in radial PAW
   METAGGA=      F    non-selfconsistent MetaGGA calc.

 Electronic Relaxation 1
   ENCUT  =  500.0 eV  36.75 Ry    6.06 a.u.  18.00 18.00 36.46*2*pi/ulx,y,z
   ENINI  =  500.0     initial cutoff
[...]
 Tr[quadrupol]     -2317.537832

 energy correction for charged system         0.000000 eV
 dipol+quadrupol energy correction           -0.018351 eV
 added-field ion interaction        -15.649587 eV  (added to PSCEN)

 Free energy of the ion-electron system (eV)
  alpha Z        PSCENC =        39.92248306
  Ewald energy   TEWEN  =     21840.33001928
  -Hartree energ DENC   =    -26401.20849630
  -exchange      EXHF   =         0.00000000
  -V(xc)+E(xc)   XCENC  =       485.57576806
  PAW double counting   =      2689.20754663    -2819.12338538
  entropy T*S    EENTRO =        -0.01609661
  eigenvalues    EBANDS =     -1605.26254500
  atomic energy  EATOM  =      5474.79130437
  Solvation  Ediel_sol  =         0.00000000
  free energy    TOTEN  =      -295.78340189 eV

  energy without entropy =     -295.76730528  energy(sigma->0) =     -295.77535358

 average (electrostatic) potential at core
  the test charge radii are     0.6991  0.9254
  (the norm of the test charge is              1.0000)
       1 -57.4239       2 -57.4240       3 -57.3793       4 -57.3793       5 -57.4794
       6 -57.6456       7 -57.4796       8 -57.3793       9 -57.4239      10 -57.6457
      11 -57.6456      12 -57.4240      13 -57.3877      14 -57.4239      15 -57.4793
      16 -57.4239      17 -57.4239      18 -57.4794      19 -57.4240      20 -57.3877
      21 -57.4239      22 -57.6455      23 -57.6458      24 -57.4241      25 -57.3793
      26 -57.4794      27 -57.6455      28 -57.4794      29 -57.3793      30 -57.3793
      31 -57.4239      32 -57.4239      33 -53.9043

 E-fermi :  -1.2746     XC(G=0):  -2.3600     alpha+bet : -2.1216

 spin component 1

 k-point     1 :       0.0000    0.0000    0.0000
  band No.  band energies     occupation
      1     -28.0824      1.00000
      2     -28.0824      1.00000
      3     -28.0752      1.00000
      4     -21.5787      1.00000
      5     -20.2147      1.00000
      6     -20.1366      1.00000
      7     -20.1365      1.00000
      8     -20.0576      1.00000
      9     -20.0575      1.00000
     10     -20.0299      1.00000
     11     -17.3173      1.00000
     12     -17.3172      1.00000
     13     -17.2907      1.00000
     14     -17.2907      1.00000
     15     -17.2791      1.00000
     16     -17.2480      1.00000
     17     -16.3339      1.00000
     18     -16.3339      1.00000
     19     -16.3244      1.00000
     20     -15.2902      1.00000
     21     -15.2772      1.00000
     22     -15.2772      1.00000
     23     -12.6049      1.00000
     24     -12.6049      1.00000
     25     -12.5948      1.00000
     26     -12.5948      1.00000
     27     -12.5557      1.00000
     28     -12.5496      1.00000
     29     -11.0499      1.00000
     30     -11.0424      1.00000
     31     -10.9772      1.00000
     32     -10.9772      1.00000
     33     -10.9706      1.00000
     34     -10.9705      1.00000
     35      -9.7750      1.00000
     36      -9.4976      1.00000
     37      -9.4975      1.00000
     38      -9.4958      1.00000
     39      -9.4697      1.00000
     40      -9.4696      1.00000
     41      -9.4448      1.00000
     42      -8.4598      1.00000
     43      -8.4597      1.00000
     44      -8.4530      1.00000
     45      -8.2192      1.00000
     46      -8.0774      1.00000
     47      -8.0771      1.00000
     48      -7.9366      1.00000
     49      -7.9365      1.00000
     50      -7.9006      1.00000
     51      -7.1142      1.00000
     52      -7.1084      1.00000
     53      -7.1084      1.00000
     54      -7.0787      1.00000
     55      -7.0786      1.00000
     56      -7.0571      1.00000
     57      -5.0837      1.00000
     58      -5.0836      1.00000
     59      -4.9804      1.00000
     60      -4.9802      1.00000
[...]
    106       4.6110      0.00000
    107       4.8926      0.00000
    108       5.0123      0.00000
    109       5.0586      0.00000
    110       5.0586      0.00000
    111       5.0868      0.00000
    112       5.0870      0.00000
    113       5.1912      0.00000
    114       5.1916      0.00000
    115       5.2017      0.00000
    116       5.2022      0.00000
    117       5.2232      0.00000
    118       5.2351      0.00000
    119       5.2460      0.00000
    120       5.2539      0.00000

[...]

 spin component 2

[...]

 k-point    41 :      -0.1111    0.4444    0.0000
  band No.  band energies     occupation
      1     -28.1074      1.00000
      2     -28.1073      1.00000
      3     -28.1045      1.00000
      4     -21.3497      1.00000
      5     -21.0096      1.00000
      6     -20.6764      1.00000
      7     -20.1952      1.00000
      8     -19.5548      1.00000
      9     -19.0801      1.00000
     10     -18.9200      1.00000
     11     -18.7519      1.00000
     12     -18.4496      1.00000
     13     -17.8238      1.00000
     14     -17.5300      1.00000
     15     -17.2218      1.00000
     16     -16.6517      1.00000
     17     -16.4044      1.00000
     18     -15.8439      1.00000
     19     -15.4307      1.00000
     20     -14.8104      1.00000
     21     -14.3524      1.00000
     22     -14.1728      1.00000
     23     -14.0646      1.00000
     24     -14.0119      1.00000
     25     -13.4373      1.00000
     26     -13.2252      1.00000
     27     -12.1591      1.00000
     28     -12.0368      1.00000
     29     -11.8945      1.00000
     30     -11.2747      1.00000
     31     -11.2700      1.00000
     32     -10.9279      1.00000
     33     -10.2113      1.00000
     34     -10.1974      1.00000
     35      -9.5697      1.00000
     36      -9.5138      1.00000
     37      -9.3408      1.00000
     38      -9.2263      1.00000
     39      -9.1965      1.00000
     40      -9.0870      1.00000
     41      -8.8987      1.00000
     42      -8.8670      1.00000
     43      -8.6852      1.00000
     44      -8.3010      1.00000
     45      -8.2242      1.00000
     46      -8.1832      1.00000
     47      -8.1271      1.00000
     48      -7.9774      1.00000
     49      -7.8536      1.00000
     50      -7.5410      1.00000
     51      -7.3912      1.00000
     52      -7.0827      1.00000
     53      -6.8627      1.00000
     54      -6.7616      1.00000
     55      -6.6673      1.00000
     56      -6.4900      1.00000
     57      -6.1541      1.00000
     58      -6.1157      1.00000
     59      -5.9909      1.00000
     60      -5.5703      1.00000
[...]
    106       4.4146      0.00000
    107       4.5594      0.00000
    108       4.6248      0.00000
    109       4.7757      0.00000
    110       4.8807      0.00000
    111       4.9719      0.00000
    112       4.9809      0.00000
    113       5.0575      0.00000
    114       5.1531      0.00000
    115       5.2198      0.00000
    116       5.2250      0.00000
    117       5.3330      0.00000
    118       5.3535      0.00000
    119       5.4173      0.00000
    120       5.4267      0.00000

 soft charge-density along one line, spin component           1
         0         1         2         3         4         5         6         7         8         9
 total charge-density along one line

 soft charge-density along one line, spin component           2
         0         1         2         3         4         5         6         7         8         9
 total charge-density along one line

------------------------ aborting loop because EDIFF is reached ----------------------------------------

  FORCE on cell =-STRESS in cart. coord.  units (eV):
  Direction    XX          YY          ZZ          XY          YZ          ZX
  Alpha Z    55.59042    55.59042    55.59042
  Ewald   26221.75407 26221.61439-30603.04900    -0.06816     0.02345    -0.04669
  Hartree 25950.35630 25950.24029-25499.38957    -0.05479     0.01373    -0.02789
  E(xc)    -505.24022  -505.24053  -523.49855    -0.00027     0.00002    -0.00005
  Local  -53585.42666-53585.17046 54417.47654     0.12333    -0.03694     0.07402
  n-local  -136.61156  -136.61224  -128.62667    -0.00042     0.00002     0.00007
  augment    29.53117    29.53106    30.72169    -0.00009     0.00000    -0.00003
  Kinetic  1973.53820  1973.53844  2250.63090     0.00002    -0.00025     0.00056
  Fock        0.00000     0.00000     0.00000     0.00000     0.00000     0.00000
  Total       3.49172     3.49138    -0.14424    -0.00038     0.00003    -0.00002
  in kB       3.31270     3.31238    -0.13684    -0.00036     0.00003    -0.00002

 VOLUME and BASIS-vectors are now :
  energy-cutoff  :      500.00
  volume of cell :     1688.76
      direct lattice vectors                 reciprocal lattice vectors
     9.874235153  0.000000000  0.000000000     0.101273667  0.058470379  0.000000000
    -4.937117577  8.551338486  0.000000000     0.000000000  0.116940757  0.000000000
     0.000000000  0.000000000 20.000000000     0.000000000  0.000000000  0.050000000

  length of vectors
     9.874235153  9.874235153 20.000000000     0.116940757  0.116940757  0.050000000

 FORCES acting on ions
    electron-ion (+dipol)            ewald-force                    non-local-force                 convergence-correction
   0.276E+01 0.821E+01 0.148E+02   -.285E+01 -.834E+01 -.150E+02   0.914E-01 0.135E+00 0.135E+00   -.146E-05 -.480E-05 -.295E-04
   -.276E+01 0.821E+01 0.151E+02   0.285E+01 -.834E+01 -.152E+02   -.914E-01 0.135E+00 0.135E+00   0.975E-06 -.490E-05 -.296E-04
   -.172E+01 -.990E+00 0.123E+02   0.178E+01 0.103E+01 -.124E+02   -.520E-01 -.300E-01 0.121E+00   0.103E-05 0.528E-06 -.274E-04
   0.172E+01 -.992E+00 0.114E+02   -.178E+01 0.103E+01 -.115E+02   0.521E-01 -.301E-01 0.882E-01   -.251E-05 0.534E-06 -.272E-04
   0.141E+02 0.814E+01 0.227E+02   -.145E+02 -.836E+01 -.229E+02   0.369E+00 0.213E+00 0.229E+00   -.613E-05 -.359E-05 -.336E-04
   -.226E-02 0.232E+02 0.529E+02   0.188E-02 -.238E+02 -.539E+02   0.248E-03 0.548E+00 0.102E+01   -.381E-06 -.682E-05 -.415E-04
   -.141E+02 0.816E+01 0.209E+02   0.145E+02 -.837E+01 -.211E+02   -.370E+00 0.213E+00 0.174E+00   0.525E-05 -.363E-05 -.336E-04
   -.942E-03 0.198E+01 0.114E+02   0.117E-02 -.206E+01 -.114E+02   0.304E-04 0.602E-01 0.906E-01   -.870E-06 -.221E-05 -.274E-04
   0.849E+01 -.172E+01 0.148E+02   -.865E+01 0.170E+01 -.150E+02   0.162E+00 0.119E-01 0.128E+00   -.508E-05 0.109E-05 -.297E-04
   0.201E+02 -.116E+02 0.526E+02   -.206E+02 0.119E+02 -.536E+02   0.475E+00 -.274E+00 0.101E+01   -.613E-05 0.309E-05 -.415E-04
   -.201E+02 -.116E+02 0.529E+02   0.206E+02 0.119E+02 -.539E+02   -.474E+00 -.274E+00 0.102E+01   0.514E-05 0.287E-05 -.416E-04
   -.849E+01 -.172E+01 0.151E+02   0.865E+01 0.170E+01 -.152E+02   -.162E+00 0.118E-01 0.135E+00   0.412E-05 0.797E-06 -.297E-04
   0.867E-03 -.781E-03 0.116E+02   -.910E-03 0.832E-03 -.117E+02   0.757E-04 -.341E-04 0.105E+00   -.204E-06 -.269E-07 -.269E-04
   0.573E+01 -.650E+01 0.148E+02   -.580E+01 0.664E+01 -.150E+02   0.708E-01 -.147E+00 0.128E+00   -.367E-05 0.364E-05 -.297E-04
   0.130E-02 -.163E+02 0.227E+02   -.137E-02 0.167E+02 -.229E+02   -.587E-04 -.426E+00 0.229E+00   -.588E-06 0.658E-05 -.336E-04
   -.573E+01 -.650E+01 0.148E+02   0.580E+01 0.664E+01 -.150E+02   -.708E-01 -.146E+00 0.135E+00   0.272E-05 0.303E-05 -.296E-04
   0.573E+01 0.650E+01 0.149E+02   -.580E+01 -.664E+01 -.150E+02   0.712E-01 0.147E+00 0.138E+00   -.270E-05 -.307E-05 -.295E-04
   0.163E-02 0.163E+02 0.228E+02   -.194E-02 -.167E+02 -.230E+02   -.202E-03 0.426E+00 0.226E+00   0.625E-06 -.652E-05 -.335E-04
   -.574E+01 0.650E+01 0.147E+02   0.580E+01 -.664E+01 -.148E+02   -.707E-01 0.147E+00 0.142E+00   0.366E-05 -.366E-05 -.297E-04
   -.647E-03 -.367E-03 0.115E+02   0.702E-03 0.440E-03 -.116E+02   -.702E-04 0.528E-04 0.112E+00   0.176E-06 0.194E-07 -.268E-04
   0.849E+01 0.172E+01 0.147E+02   -.865E+01 -.171E+01 -.149E+02   0.162E+00 -.118E-01 0.134E+00   -.416E-05 -.806E-06 -.297E-04
   0.201E+02 0.116E+02 0.527E+02   -.206E+02 -.119E+02 -.537E+02   0.474E+00 0.274E+00 0.101E+01   -.507E-05 -.295E-05 -.416E-04
   -.202E+02 0.116E+02 0.526E+02   0.206E+02 -.119E+02 -.536E+02   -.475E+00 0.274E+00 0.103E+01   0.609E-05 -.304E-05 -.415E-04
   -.850E+01 0.172E+01 0.146E+02   0.866E+01 -.170E+01 -.148E+02   -.162E+00 -.119E-01 0.152E+00   0.507E-05 -.105E-05 -.297E-04
   0.153E-02 -.198E+01 0.122E+02   -.172E-02 0.206E+01 -.123E+02   -.197E-03 -.601E-01 0.110E+00   0.832E-06 0.220E-05 -.274E-04
   0.141E+02 -.814E+01 0.226E+02   -.145E+02 0.836E+01 -.228E+02   0.369E+00 -.213E+00 0.229E+00   -.527E-05 0.364E-05 -.336E-04
   0.375E-02 -.232E+02 0.527E+02   -.381E-02 0.238E+02 -.537E+02   -.231E-03 -.548E+00 0.101E+01   0.521E-06 0.684E-05 -.415E-04
   -.141E+02 -.814E+01 0.228E+02   0.145E+02 0.836E+01 -.230E+02   -.369E+00 -.213E+00 0.227E+00   0.611E-05 0.354E-05 -.336E-04
   -.172E+01 0.991E+00 0.114E+02   0.178E+01 -.103E+01 -.115E+02   -.522E-01 0.301E-01 0.887E-01   0.249E-05 -.572E-06 -.273E-04
   0.172E+01 0.989E+00 0.121E+02   -.178E+01 -.103E+01 -.122E+02   0.520E-01 0.302E-01 0.109E+00   -.102E-05 -.491E-06 -.274E-04
   0.276E+01 -.821E+01 0.148E+02   -.285E+01 0.834E+01 -.150E+02   0.913E-01 -.135E+00 0.123E+00   -.938E-06 0.491E-05 -.297E-04
   -.276E+01 -.821E+01 0.149E+02   0.285E+01 0.834E+01 -.150E+02   -.913E-01 -.135E+00 0.137E+00   0.145E-05 0.479E-05 -.295E-04
   0.517E-01 -.304E-01 -.737E+03   -.519E-01 0.309E-01 0.733E+03   0.198E-03 -.472E-03 0.423E+01   -.120E-07 0.274E-07 -.150E-03
   0.106E-02 -.223E-03 -.141E+02   -.132E-13 0.214E-13 0.000E+00   -.116E-02 0.425E-03 0.141E+02   0.684E-07 -.291E-07 -.117E-02

 POSITION                                       TOTAL-FORCE (eV/Angst)
      1.23329      0.71105     10.00000         0.001082      0.005672     -0.010686
      3.70383      0.71105      9.99949        -0.000863      0.005485     -0.009420
      6.17176      0.71283     10.00000         0.014376      0.008047      0.025016
      8.63959      0.71282     10.00172        -0.014370      0.008258      0.000734
     -0.00416      2.84804      9.99579        -0.006637     -0.003637      0.005184
      2.46855      2.84552      9.98311        -0.000130      0.005639      0.011046
      4.94129      2.84804     10.00000         0.004861     -0.002845     -0.033984
      7.40567      2.85002     10.00218         0.000260     -0.016424      0.002797
     -1.23613      4.98821      9.99992         0.005336     -0.002177     -0.014922
      1.23001      4.99075      9.98367         0.005225     -0.003093      0.006328
      3.70710      4.99075      9.98316        -0.004861     -0.002708      0.011419
      6.17324      4.98821      9.99957        -0.005111     -0.001933     -0.008714
     -2.46856      7.12612     10.00001         0.000035      0.000011      0.002520
     -0.00086      7.12775      9.99979         0.004668     -0.003473     -0.016076
      2.46856      7.13092      9.99571        -0.000132      0.007403      0.004508
      4.93797      7.12775     10.00000        -0.004309     -0.003772     -0.011098
     -0.00086      1.42358     10.00000         0.004832      0.003846     -0.007736
      2.46857      1.42042      9.99551        -0.000509     -0.006887      0.005026
      4.93797      1.42359     10.00076        -0.004213      0.003277     -0.007220
      7.40568      1.42522     10.00062        -0.000012      0.000120      0.009926
     -1.23613      3.56313     10.00041         0.005528      0.001942     -0.012937
      1.23001      3.56059      9.98340         0.005042      0.003208      0.002992
      3.70709      3.56061      9.98431        -0.003862      0.002164      0.014841
      6.17324      3.56314     10.00128        -0.005036      0.002082     -0.001370
     -2.46856      5.70132     10.00000        -0.000381      0.016247      0.015999
     -0.00418      5.70330      9.99585        -0.005723      0.003294      0.005868
      2.46857      5.70582      9.98347        -0.000293     -0.005762      0.003479
      4.94129      5.70329      9.99547         0.005615      0.003875      0.004913
     -3.70247      7.83851     10.00160         0.013937     -0.008072      0.000625
     -1.23465      7.83851     10.00000        -0.014314     -0.007832      0.014549
      1.23329      7.84029      9.99981         0.000922     -0.005855     -0.019946
      3.70383      7.84029     10.00000        -0.000942     -0.006079     -0.009624
      2.46856      4.27567     12.29870        -0.000017     -0.000020      0.015965
    total drift:                               -0.000095      0.000202      0.006679

  FREE ENERGIE OF THE ION-ELECTRON SYSTEM (eV)
  free  energy   TOTEN  =      -295.78340189 eV

  energy  without entropy=     -295.76730528  energy(sigma->0) =     -295.77535358

 writing wavefunctions