 vasp.5.4.4.18Apr17-6-g9f103f2a35 (build Apr 11 2019 18:12:45) complex

 executed on             LinuxIFC date 2019.08.28  15:19:34

 INCAR:
 POTCAR:   PAW_PBE C 08Apr2002
 POTCAR:    PAW_PBE Na_pv 19Sep2006

 POTCAR:   PAW_PBE C 08Apr2002
   VRHFIN =C: s2p2

   TITEL  = PAW_PBE C 08Apr2002
   POMASS =   12.011; ZVAL   =    4.000    mass and valenz
   ENMAX  =  400.000; ENMIN  =  300.000 eV
   QCUT   =   -5.516; QGAM   =   11.032    optimization parameters

   Description
     l     E      TYP  RCUT    TYP  RCUT
     0   .000     23  1.200
     0   .000     23  1.200
     1   .000     23  1.500
     1  2.500     23  1.500
     2   .000      7  1.500

 POTCAR:    PAW_PBE Na_pv 19Sep2006
   VRHFIN =Na: p6s1

   TITEL  = PAW_PBE Na_pv 19Sep2006
   POMASS =   22.990; ZVAL   =    7.000    mass and valenz
   ENMAX  =  259.561; ENMIN  =  194.671 eV
   QCUT   =   -4.368; QGAM   =    8.735    optimization parameters

   Description
     l     E      TYP  RCUT    TYP  RCUT
     1   .000     23  2.000
     1   .500     23  2.000
     0   .000     23  2.200
     0  2.500     23  2.200
     2  -.100     23  2.200

 Optimization of the real space projectors (new method)

 maximal supplied QI-value         = 25.13
 optimisation between [QCUT,QGAM] = [ 11.31, 28.40] = [ 35.82,225.87] Ry
 Optimized for a Real-space Cutoff    0.93 Angstroem

   l    n(q)    QCUT    max X(q) W(low)/X(q) W(high)/X(q)  e(spline)
   0      8    11.310     5.582    0.36E-04    0.13E-04    0.14E-07
   0      8    11.310    69.432    0.28E-03    0.21E-03    0.11E-06
   1      7    11.310     2.780    0.37E-04    0.49E-04    0.22E-07
   1      7    11.310     4.549    0.27E-03    0.38E-03    0.91E-07
 Optimization of the real space projectors (new method)

 maximal supplied QI-value         = 17.01
 optimisation between [QCUT,QGAM] = [ 11.40, 28.57] = [ 36.36,228.61] Ry
 Optimized for a Real-space Cutoff    1.25 Angstroem

   l    n(q)    QCUT    max X(q) W(low)/X(q) W(high)/X(q)  e(spline)
   1     10    11.395     4.977    0.23E-05    0.17E-05    0.20E-07
   1     10    11.395     7.312    0.34E-03    0.16E-03    0.87E-06
   0     11    11.395    36.258    0.15E-04    0.97E-06    0.30E-07
   0     11    11.395    45.649    0.12E-04    0.89E-05    0.80E-07
 PAW_PBE C 08Apr2002                    :
  PAW_PBE Na_pv 19Sep2006               :

 POSCAR: graphene+Na
  positions in direct lattice
  velocities in cartesian coordinates
 exchange correlation table for  LEXCH =        8
   RHO(1)=    0.500       N(1)  =     2000
   RHO(2)=  100.500       N(2)  =     4000

 ion  position               nearest neighbor table
   1  0.166  0.083  0.500-  29 1.42  18 1.42  17 1.43
   2  0.417  0.083  0.500-  30 1.42  18 1.42  19 1.43
   3  0.667  0.083  0.500-  19 1.42  31 1.42  20 1.42
   4  0.917  0.083  0.500-  17 1.42  32 1.42  20 1.42
   5  0.166  0.333  0.500-  17 1.42  21 1.42  22 1.43
   6  0.416  0.333  0.499-  18 1.43  22 1.43  23 1.43
   7  0.667  0.333  0.500-  24 1.42  19 1.42  23 1.43
   8  0.917  0.333  0.500-  24 1.42  21 1.42  20 1.42
   9  0.166  0.583  0.500-  25 1.42  26 1.42  21 1.43
  10  0.416  0.584  0.499-  26 1.43  27 1.43  22 1.43
  11  0.667  0.584  0.499-  28 1.43  27 1.43  23 1.43
  12  0.917  0.583  0.500-  25 1.42  28 1.42  24 1.43
  13  0.167  0.833  0.500-  25 1.42  29 1.42  30 1.42
  14  0.417  0.834  0.500-  30 1.42  26 1.42  31 1.43
  15  0.667  0.834  0.500-  32 1.42  31 1.42  27 1.43
  16  0.917  0.834  0.500-  29 1.42  28 1.42  32 1.43
  17  0.083  0.166  0.500-   4 1.42   5 1.42   1 1.43
  18  0.333  0.166  0.500-   2 1.42   1 1.42   6 1.43
  19  0.583  0.166  0.500-   3 1.42   7 1.42   2 1.43
  20  0.833  0.167  0.500-   3 1.42   4 1.42   8 1.42
  21  0.083  0.417  0.500-   8 1.42   5 1.42   9 1.43
  22  0.333  0.416  0.499-   5 1.43   6 1.43  10 1.43
  23  0.584  0.416  0.499-   7 1.43  11 1.43   6 1.43
  24  0.834  0.417  0.500-   8 1.42   7 1.42  12 1.43
  25  0.083  0.667  0.500-   9 1.42  12 1.42  13 1.42
  26  0.333  0.667  0.500-  14 1.42   9 1.42  10 1.43
  27  0.584  0.667  0.499-  15 1.43  11 1.43  10 1.43
  28  0.834  0.667  0.500-  12 1.42  16 1.42  11 1.43
  29  0.083  0.917  0.500-   1 1.42  16 1.42  13 1.42
  30  0.333  0.917  0.500-  14 1.42   2 1.42  13 1.42
  31  0.583  0.917  0.500-   3 1.42  15 1.42  14 1.43
  32  0.834  0.917  0.500-   4 1.42  15 1.42  16 1.43
  33  0.500  0.500  0.615-

  LATTYP: Found a hexagonal cell.
 ALAT       =     9.8742351532
 C/A-ratio  =     2.0254733344

  Lattice vectors:

 A1 = (   9.8742351532,   0.0000000000,   0.0000000000)
 A2 = (  -4.9371175766,   8.5513384856,   0.0000000000)
 A3 = (   0.0000000000,   0.0000000000,  20.0000000000)

Analysis of symmetry for initial positions (statically):
 Subroutine PRICEL returns:
 Original cell was already a primitive cell.

 Routine SETGRP: Setting up the symmetry group for a
 hexagonal supercell.

 Subroutine GETGRP returns: Found  1 space group operations
 (whereof  1 operations were pure point group operations)
 out of a pool of 24 trial point group operations.

The static configuration has the point symmetry C_1 .

Analysis of symmetry for dynamics (positions and initial velocities):
 Subroutine PRICEL returns:
 Original cell was already a primitive cell.

[...]

The dynamic configuration has the point symmetry C_1 .

Analysis of constrained symmetry for selective dynamics:
 Subroutine PRICEL returns:
 Original cell was already a primitive cell.

[...]

The constrained configuration has the point symmetry C_1 .

Analysis of structural, dynamic, and magnetic symmetry:
 Subroutine PRICEL returns:
 Original cell was already a primitive cell.

 Routine SETGRP: Setting up the symmetry group for a
 hexagonal supercell.

 Subroutine GETGRP returns: Found  1 space group operations
 (whereof  1 operations were pure point group operations)
 out of a pool of 24 trial point group operations.

The magnetic configuration has the point symmetry C_1 .

 Subroutine INISYM returns: Found  1 space group operations
 (whereof  1 operations are pure point group operations),
 and found     1 'primitive' translations

 KPOINTS: K-Path Generated by VASPKIT.
  interpolating k-points between supplied coordinates
  k-points in reciprocal lattice
Space group operators:
 irot       det(A)        alpha          n_x          n_y          n_z        tau_x        tau_y        tau_z
    1     1.000000     0.000000     1.000000     0.000000     0.000000     0.000000     0.000000     0.000000

 SYSTEM =  graphene_metal
 POSCAR =  graphene+Na

 Startparameter for this run:
   NWRITE =      2    write-flag & timer
   PREC   = high      normal or accurate (medium, high low for compatibility)
   ISTART =      1    job   : 0-new  1-cont  2-samecut
   ICHARG =     11    charge: 1-file 2-atom 10-const
   ISPIN  =      2    spin polarized calculation?
   LNONCOLLINEAR =      F non collinear calculations
   LSORBIT =      F    spin-orbit coupling
   INIWAV =      1    electr: 0-lowe 1-rand  2-diag
   LASPH  =      F    aspherical Exc in radial PAW
   METAGGA=      F    non-selfconsistent MetaGGA calc.

 Electronic Relaxation 1
   ENCUT  =  500.0 eV  36.75 Ry    6.06 a.u.  18.00 18.00 36.46*2*pi/ulx,y,z
   ENINI  =  500.0     initial cutoff
   ENAUG  =  644.9 eV  augmentation charge cutoff
   NELM   =    200;   NELMIN=  2; NELMDL=  0     # of ELM steps
   EDIFF  = 0.1E-05   stopping-criterion for ELM
   LREAL  =      T    real-space projection
   NLSPLINE    = F    spline interpolate recip. space projectors
   LCOMPAT=      F    compatible to vasp.4.4
   GGA_COMPAT  = T    GGA compatible to vasp.4.4-vasp.4.6
   LMAXPAW     = -100 max onsite density
   LMAXMIX     =    2 max onsite mixed and CHGCAR
   VOSKOWN=      0    Vosko Wilk Nusair interpolation
   ROPT   =   -0.00040  -0.00040
 Ionic relaxation
   EDIFFG = 0.1E-04   stopping-criterion for IOM
   NSW    =      0    number of steps for IOM
   NBLOCK =      1;   KBLOCK =      1    inner block; outer block
   IBRION =     -1    ionic relax: 0-MD 1-quasi-New 2-CG
   NFREE  =      0    steps in history (QN), initial steepest desc. (CG)
   ISIF   =      2    stress and relaxation
   IWAVPR =     10    prediction:  0-non 1-charg 2-wave 3-comb
   ISYM   =      2    0-nonsym 1-usesym 2-fastsym
   LCORR  =      T    Harris-Foulkes like correction to forces

   POTIM  = 0.5000    time-step for ionic-motion
   TEIN   =    0.0    initial temperature
   TEBEG  =    0.0;   TEEND  =   0.0 temperature during run
   SMASS  =  -3.00    Nose mass-parameter (am)
   estimated Nose-frequenzy (Omega)   =  0.10E-29 period in steps =****** mass=  -0.223E-26a.u.
   SCALEE = 1.0000    scale energy and forces
   NPACO  =    256;   APACO  = 16.0  distance and # of slots for P.C.
   PSTRESS=    0.0 pullay stress

  Mass of Ions in am
   POMASS =  12.01 22.99
  Ionic Valenz
   ZVAL   =   4.00  7.00
  Atomic Wigner-Seitz radii
  virtual crystal weights
   VCA    =   1.00  1.00
   NELECT =     135.0000    total number of electrons
   NUPDOWN=      -1.0000    fix difference up-down

 DOS related values:
   EMIN   =  10.00;   EMAX   =-10.00  energy-range for DOS
   EFERMI =   0.00
   ISMEAR =     0;   SIGMA  =   0.10  broadening in eV -4-tet -1-fermi 0-gaus

 Electronic relaxation 2 (details)
   IALGO  =     38    algorithm
   LDIAG  =      T    sub-space diagonalisation (order eigenvalues)
   LSUBROT=      F    optimize rotation matrix (better conditioning)
   TURBO    =      0    0=normal 1=particle mesh
   IRESTART =      0    0=no restart 2=restart with 2 vectors
   NREBOOT  =      0    no. of reboots
   NMIN     =      0    reboot dimension
   EREF     =   0.00    reference energy to select bands
   IMIX   =      4    mixing-type and parameters
     AMIX     =   0.40;   BMIX     =  1.00
     AMIX_MAG =   1.60;   BMIX_MAG =  1.00
     AMIN     =   0.10
     WC   =   100.;   INIMIX=   1;  MIXPRE=   1;  MAXMIX= -45

 Intra band minimization:
   WEIMIN = 0.0000     energy-eigenvalue tresh-hold
   EBREAK =  0.17E-08  absolut break condition
   DEPER  =   0.30     relativ break condition

   TIME   =   0.40     timestep for ELM

  volume/ion in A,a.u.               =      51.17       345.34
  Fermi-wavevector in a.u.,A,eV,Ry     =   0.705229  1.332690  6.766832  0.497348
  Thomas-Fermi vector in A             =   1.790684

 Write flags
   LWAVE        =      T    write WAVECAR
   LDOWNSAMPLE  =      F    k-point downsampling of WAVECAR
   LCHARG       =      T    write CHGCAR
   LVTOT        =      F    write LOCPOT, total local potential
   LVHAR        =      F    write LOCPOT, Hartree potential only
   LELF         =      F    write electronic localiz. function (ELF)
   LORBIT       =     11    0 simple, 1 ext, 2 COOP (PROOUT), +10 PAW based schemes

 Dipole corrections
   LMONO  =      F    monopole corrections only (constant potential shift)
   LDIPOL =      T    correct potential (dipole corrections)
   IDIPOL =      3    1-x, 2-y, 3-z, 4-all directions
   EPSILON=  1.0000000 bulk dielectric constant

 Exchange correlation treatment:
   GGA     =    --    GGA type
   VOSKOWN=      0    Vosko Wilk Nusair interpolation
   LHFCALC =     F    Hartree Fock is set to
   LHFONE  =     F    Hartree Fock one center treatment
[...]
     39      -9.6027      1.00000
     40      -9.6026      1.00000
     41      -9.5784      1.00000
     42      -8.5927      1.00000
     43      -8.5925      1.00000
     44      -8.5859      1.00000
     45      -8.3408      1.00000
     46      -8.2014      1.00000
     47      -8.2011      1.00000
     48      -8.0654      1.00000
     49      -8.0653      1.00000
     50      -8.0306      1.00000
     51      -7.2467      1.00000
     52      -7.2409      1.00000
     53      -7.2409      1.00000
     54      -7.2121      1.00000
     55      -7.2120      1.00000
     56      -7.1910      1.00000
     57      -5.2169      1.00000
     58      -5.2168      1.00000
     59      -5.1042      1.00000
     60      -5.1039      1.00000
[...]
    130       5.8335      0.00000
    131       6.0062      0.00000
    132       6.0065      0.00000
    133       6.0305      0.00000
    134       6.3078      0.00000
    135       6.3149      0.00000
    136       6.4161      0.00000
    137       6.5172      0.00000
    138       6.5991      0.00000
    139       6.5994      0.00000
    140       6.7815      0.00000
    141       6.7815      0.00000
    142       6.8177      0.00000
    143       7.0229      0.00000
    144       7.1850      0.00000

[...]

 spin component 2

[...]

 k-point    60 :       0.0000    0.0000    0.0000
  band No.  band energies     occupation
      1     -28.0313      1.00000
      2     -28.0312      1.00000
      3     -28.0277      1.00000
      4     -21.7106      1.00000
      5     -20.3446      1.00000
      6     -20.2680      1.00000
      7     -20.2679      1.00000
      8     -20.1914      1.00000
      9     -20.1913      1.00000
     10     -20.1645      1.00000
     11     -17.4492      1.00000
     12     -17.4492      1.00000
     13     -17.4234      1.00000
     14     -17.4233      1.00000
     15     -17.4119      1.00000
     16     -17.3814      1.00000
     17     -16.4671      1.00000
     18     -16.4670      1.00000
     19     -16.4574      1.00000
     20     -15.4228      1.00000
     21     -15.4098      1.00000
     22     -15.4098      1.00000
     23     -12.7375      1.00000
     24     -12.7375      1.00000
     25     -12.7274      1.00000
     26     -12.7273      1.00000
     27     -12.6898      1.00000
     28     -12.6839      1.00000
     29     -11.1810      1.00000
     30     -11.1733      1.00000
     31     -11.1108      1.00000
     32     -11.1107      1.00000
     33     -11.1042      1.00000
     34     -11.1042      1.00000
     35      -9.9028      1.00000
     36      -9.6302      1.00000
     37      -9.6302      1.00000
     38      -9.6285      1.00000
     39      -9.6032      1.00000
     40      -9.6031      1.00000
     41      -9.5789      1.00000
     42      -8.5931      1.00000
     43      -8.5930      1.00000
     44      -8.5863      1.00000
     45      -8.3464      1.00000
     46      -8.2047      1.00000
     47      -8.2045      1.00000
     48      -8.0669      1.00000
     49      -8.0668      1.00000
     50      -8.0321      1.00000
     51      -7.2471      1.00000
     52      -7.2414      1.00000
     53      -7.2414      1.00000
     54      -7.2125      1.00000
     55      -7.2124      1.00000
     56      -7.1913      1.00000
     57      -5.2174      1.00000
     58      -5.2173      1.00000
     59      -5.1088      1.00000
     60      -5.1086      1.00000
[...]
    130       5.7869      0.00000
    131       5.8159      0.00000
    132       5.8168      0.00000
    133       5.8286      0.00000
    134       6.0133      0.00000
    135       6.2267      0.00000
    136       6.2269      0.00000
    137       6.2455      0.00000
    138       6.5259      0.00000
    139       6.5266      0.00000
    140       6.6241      0.00000
    141       6.6506      0.00000
    142       6.7617      0.00000
    143       6.8317      0.00000
    144       6.9220      0.00000

 soft charge-density along one line, spin component           1
         0         1         2         3         4         5         6         7         8         9
 total charge-density along one line

 soft charge-density along one line, spin component           2
         0         1         2         3         4         5         6         7         8         9
 total charge-density along one line

------------------------ aborting loop because EDIFF is reached ----------------------------------------

 total charge

# of ion       s       p       d       tot
    1        0.863   1.791   0.000   2.655
    2        0.863   1.791   0.000   2.654
    3        0.863   1.793   0.000   2.656
    4        0.863   1.793   0.000   2.656
    5        0.863   1.793   0.000   2.656
    6        0.861   1.792   0.000   2.653
    7        0.863   1.792   0.000   2.655
    8        0.863   1.793   0.000   2.656
    9        0.863   1.791   0.000   2.654
   10        0.861   1.791   0.000   2.652
   11        0.861   1.793   0.000   2.654
   12        0.863   1.792   0.000   2.656
   13        0.863   1.791   0.000   2.654
   14        0.863   1.791   0.000   2.654
   15        0.863   1.792   0.000   2.654
   16        0.863   1.793   0.000   2.656
   17        0.863   1.793   0.000   2.656
   18        0.863   1.792   0.000   2.654
   19        0.863   1.791   0.000   2.654
   20        0.863   1.791   0.000   2.654
   21        0.863   1.792   0.000   2.656
   22        0.861   1.793   0.000   2.654
   23        0.861   1.791   0.000   2.652
   24        0.863   1.791   0.000   2.654
   25        0.863   1.793   0.000   2.656
   26        0.863   1.792   0.000   2.655
   27        0.861   1.792   0.000   2.653
   28        0.863   1.793   0.000   2.656
   29        0.863   1.793   0.000   2.656
   30        0.863   1.793   0.000   2.656
   31        0.863   1.791   0.000   2.654
   32        0.863   1.791   0.000   2.655
   33        0.028   5.963   0.000   5.990
tot         27.636  63.305   0.000  90.942

 magnetization (x)

[...]

  FORCE on cell =-STRESS in cart. coord.  units (eV):
  Direction    XX          YY          ZZ          XY          YZ          ZX
  Alpha Z    55.59042    55.59042    55.59042
  Ewald   26221.75407 26221.61439-30603.04900    -0.06816     0.02345    -0.04669
  Hartree 26009.51295 26009.36429-25560.84413     0.15996     0.01290    -0.02617
  E(xc)    -505.14747  -505.14785  -523.41668    -0.00017     0.00002    -0.00005
  Local  -53645.11668-53645.55418 54481.45151     0.66088    -0.03599     0.07196
  n-local  -138.35288  -138.45781  -131.74088     0.13060    -0.00002    -0.00033
  augment    29.44488    29.44864    30.67551    -0.00603    -0.00002    -0.00003
  Kinetic  1976.35032  1976.67989  2258.55705    -1.21895    -0.00029     0.00055
  Fock        0.00000     0.00000     0.00000     0.00000     0.00000     0.00000
  Total       4.03561     3.53779     7.22379    -0.34187     0.00004    -0.00075
  in kB       3.82870     3.35641     6.85343    -0.32434     0.00004    -0.00071

 VOLUME and BASIS-vectors are now :
  energy-cutoff  :      500.00
  volume of cell :     1688.76
      direct lattice vectors                 reciprocal lattice vectors
     9.874235153  0.000000000  0.000000000     0.101273667  0.058470379  0.000000000
    -4.937117577  8.551338486  0.000000000     0.000000000  0.116940757  0.000000000
     0.000000000  0.000000000 20.000000000     0.000000000  0.000000000  0.050000000

  length of vectors
     9.874235153  9.874235153 20.000000000     0.116940757  0.116940757  0.050000000

 FORCES acting on ions
    electron-ion (+dipol)            ewald-force                    non-local-force                 convergence-correction
   0.264E+01 0.802E+01 0.143E+02   -.285E+01 -.834E+01 -.150E+02   0.272E-01 0.102E+00 0.121E+00   0.136E+00 0.180E+00 0.592E+00
   -.272E+01 0.804E+01 0.145E+02   0.285E+01 -.834E+01 -.152E+02   -.148E+00 0.111E+00 0.119E+00   -.109E-01 0.179E+00 0.593E+00
   -.152E+01 -.921E+00 0.118E+02   0.178E+01 0.103E+01 -.124E+02   -.103E+00 -.498E-01 0.110E+00   -.130E+00 -.554E-01 0.524E+00
   0.180E+01 -.961E+00 0.109E+02   -.178E+01 0.103E+01 -.115E+02   -.467E-02 -.588E-01 0.741E-01   -.339E-01 -.434E-01 0.526E+00
   0.139E+02 0.799E+01 0.220E+02   -.145E+02 -.836E+01 -.229E+02   0.305E+00 0.185E+00 0.218E+00   0.225E+00 0.158E+00 0.705E+00
   -.142E-01 0.230E+02 0.520E+02   0.188E-02 -.238E+02 -.539E+02   -.562E-01 0.515E+00 0.102E+01   0.585E-01 0.207E+00 0.941E+00
   -.139E+02 0.807E+01 0.202E+02   0.145E+02 -.837E+01 -.211E+02   -.425E+00 0.182E+00 0.160E+00   -.246E+00 0.789E-01 0.707E+00
   0.104E+00 0.196E+01 0.108E+02   0.117E-02 -.206E+01 -.114E+02   -.616E-01 0.380E-01 0.764E-01   -.713E-01 0.329E-01 0.525E+00
   0.830E+01 -.176E+01 0.143E+02   -.865E+01 0.170E+01 -.150E+02   0.943E-01 -.144E-01 0.114E+00   0.208E+00 0.306E-01 0.591E+00
   0.200E+02 -.116E+02 0.516E+02   -.206E+02 0.119E+02 -.536E+02   0.411E+00 -.294E+00 0.101E+01   0.182E+00 -.454E-01 0.942E+00
   -.198E+02 -.114E+02 0.519E+02   0.206E+02 0.119E+02 -.539E+02   -.520E+00 -.292E+00 0.101E+01   -.278E+00 -.168E+00 0.942E+00
   -.832E+01 -.163E+01 0.145E+02   0.865E+01 0.170E+01 -.152E+02   -.216E+00 -.140E-01 0.121E+00   -.147E+00 -.892E-01 0.590E+00
   0.104E-01 -.123E-01 0.111E+02   -.910E-03 0.832E-03 -.117E+02   -.498E-01 -.209E-01 0.933E-01   0.509E-01 0.209E-01 0.502E+00
   0.564E+01 -.640E+01 0.142E+02   -.580E+01 0.664E+01 -.150E+02   0.137E-01 -.170E+00 0.112E+00   0.132E+00 -.102E+00 0.589E+00
   0.106E+00 -.160E+02 0.220E+02   -.137E-02 0.167E+02 -.229E+02   -.620E-01 -.444E+00 0.216E+00   -.795E-01 -.249E+00 0.702E+00
   -.555E+01 -.641E+01 0.143E+02   0.580E+01 0.664E+01 -.150E+02   -.127E+00 -.166E+00 0.120E+00   -.144E+00 -.978E-01 0.591E+00
   0.556E+01 0.641E+01 0.143E+02   -.580E+01 -.664E+01 -.150E+02   0.127E+00 0.167E+00 0.124E+00   0.143E+00 0.968E-01 0.593E+00
   -.105E+00 0.160E+02 0.221E+02   -.194E-02 -.167E+02 -.230E+02   0.617E-01 0.444E+00 0.214E+00   0.806E-01 0.249E+00 0.704E+00
   -.565E+01 0.640E+01 0.141E+02   0.580E+01 -.664E+01 -.148E+02   -.135E-01 0.170E+00 0.126E+00   -.133E+00 0.105E+00 0.593E+00
   -.109E-01 0.103E-01 0.110E+02   0.702E-03 0.440E-03 -.116E+02   0.497E-01 0.207E-01 0.999E-01   -.503E-01 -.199E-01 0.505E+00
   0.832E+01 0.163E+01 0.142E+02   -.865E+01 -.171E+01 -.149E+02   0.216E+00 0.142E-01 0.118E+00   0.145E+00 0.878E-01 0.591E+00
   0.198E+02 0.114E+02 0.518E+02   -.206E+02 -.119E+02 -.537E+02   0.520E+00 0.292E+00 0.998E+00   0.280E+00 0.167E+00 0.942E+00
   -.200E+02 0.116E+02 0.516E+02   0.206E+02 -.119E+02 -.536E+02   -.412E+00 0.294E+00 0.102E+01   -.180E+00 0.461E-01 0.943E+00
   -.831E+01 0.176E+01 0.140E+02   0.866E+01 -.170E+01 -.148E+02   -.941E-01 0.147E-01 0.137E+00   -.210E+00 -.321E-01 0.592E+00
   -.104E+00 -.195E+01 0.116E+02   -.172E-02 0.206E+01 -.123E+02   0.616E-01 -.380E-01 0.976E-01   0.712E-01 -.335E-01 0.522E+00
   0.138E+02 -.805E+01 0.219E+02   -.145E+02 0.836E+01 -.228E+02   0.425E+00 -.182E+00 0.217E+00   0.246E+00 -.780E-01 0.702E+00
   0.126E-01 -.230E+02 0.517E+02   -.381E-02 0.238E+02 -.537E+02   0.556E-01 -.515E+00 0.101E+01   -.552E-01 -.208E+00 0.942E+00
   -.139E+02 -.799E+01 0.221E+02   0.145E+02 0.836E+01 -.230E+02   -.305E+00 -.184E+00 0.215E+00   -.227E+00 -.159E+00 0.703E+00
   -.180E+01 0.959E+00 0.109E+02   0.178E+01 -.103E+01 -.115E+02   0.472E-02 0.588E-01 0.744E-01   0.333E-01 0.439E-01 0.524E+00
   0.152E+01 0.919E+00 0.116E+02   -.178E+01 -.103E+01 -.122E+02   0.103E+00 0.497E-01 0.976E-01   0.130E+00 0.566E-01 0.523E+00
   0.271E+01 -.804E+01 0.143E+02   -.285E+01 0.834E+01 -.150E+02   0.148E+00 -.111E+00 0.107E+00   0.114E-01 -.179E+00 0.590E+00
   -.264E+01 -.802E+01 0.143E+02   0.285E+01 0.834E+01 -.150E+02   -.272E-01 -.102E+00 0.122E+00   -.135E+00 -.180E+00 0.592E+00
   0.517E-01 -.304E-01 -.741E+03   -.519E-01 0.309E-01 0.733E+03   0.154E-04 -.640E-03 0.404E+01   0.127E-03 0.139E-03 0.413E+01
   -.624E-03 0.886E-03 -.390E+02   -.132E-13 0.214E-13 0.000E+00   -.654E-03 -.207E-03 0.135E+02   0.119E-02 -.511E-03 0.252E+02

 POSITION                                       TOTAL-FORCE (eV/Angst)
      1.23329      0.71105     10.00000        -0.045320     -0.042529     -0.006562
      3.70383      0.71105      9.99949        -0.024460     -0.013043     -0.006083
      6.17176      0.71283     10.00000         0.028003      0.001914      0.032006
      8.63959      0.71282     10.00172        -0.023501     -0.032826      0.005143
     -0.00416      2.84804      9.99579        -0.015385     -0.025452      0.009120
      2.46855      2.84552      9.98311        -0.009999     -0.023631      0.019799
      4.94129      2.84804     10.00000        -0.032630     -0.040052     -0.030362
      7.40567      2.85002     10.00218        -0.027819     -0.031767      0.007541
     -1.23613      4.98821      9.99992        -0.047014     -0.043042     -0.010651
      1.23001      4.99075      9.98367        -0.009887     -0.022326      0.013948
      3.70710      4.99075      9.98316         0.011262     -0.009968      0.013154
      6.17324      4.98821      9.99957        -0.030417     -0.027175     -0.003523
     -2.46856      7.12612     10.00001         0.010685     -0.011505      0.009585
     -0.00086      7.12775      9.99979        -0.010345     -0.034557     -0.012639
      2.46856      7.13092      9.99571        -0.036384     -0.026285      0.009234
      4.93797      7.12775     10.00000        -0.023799     -0.034410     -0.006110
     -0.00086      1.42358     10.00000         0.024441      0.034541     -0.003120
      2.46857      1.42042      9.99551         0.035737      0.026540      0.009264
      4.93797      1.42359     10.00076         0.010788      0.034082     -0.004256
      7.40568      1.42522     10.00062        -0.010820      0.011545      0.016114
     -1.23613      3.56313     10.00041         0.031016      0.027236     -0.007967
      1.23001      3.56059      9.98340        -0.011180      0.010671      0.004801
      3.70709      3.56061      9.98431         0.011295      0.021183      0.022527
      6.17324      3.56314     10.00128         0.047590      0.043188      0.002482
     -2.46856      5.70132     10.00000         0.027570      0.031472      0.021539
     -0.00418      5.70330      9.99585         0.031528      0.040557      0.010208
      2.46857      5.70582      9.98347         0.009235      0.023545      0.012060
      4.94129      5.70329      9.99547         0.014827      0.025986      0.008639
     -3.70247      7.83851     10.00160         0.023042      0.032950      0.005406
     -1.23465      7.83851     10.00000        -0.028063     -0.001753      0.021763
      1.23329      7.84029      9.99981         0.024556      0.012808     -0.016355
      3.70383      7.84029     10.00000         0.045473      0.042144     -0.005319
      2.46856      4.27567     12.29870        -0.000024     -0.000041     -0.141386
    total drift:                               -0.000089      0.000168     -0.223858

  FREE ENERGIE OF THE ION-ELECTRON SYSTEM (eV)
  free  energy   TOTEN  =      -295.84641270 eV

  energy  without entropy=     -295.82592396  energy(sigma->0) =     -295.83616833

 writing wavefunctions

 total charge

[...]

 magnetization (x)

# of ion       s       p       d       tot
    1       -0.000   0.000   0.000   0.000
    2       -0.000  -0.000   0.000  -0.000
    3       -0.000  -0.000   0.000  -0.000
    4       -0.000  -0.000   0.000  -0.000
    5       -0.000  -0.000   0.000  -0.000
    6       -0.000  -0.000   0.000  -0.000
    7       -0.000  -0.000   0.000  -0.000
    8       -0.000  -0.000   0.000  -0.000
    9       -0.000   0.000   0.000   0.000
   10       -0.000   0.000   0.000  -0.000
   11       -0.000  -0.000   0.000  -0.000
   12       -0.000  -0.000   0.000  -0.000
   13       -0.000  -0.000   0.000  -0.000
   14       -0.000   0.000   0.000   0.000
   15       -0.000  -0.000   0.000  -0.000
   16       -0.000  -0.000   0.000  -0.000
   17       -0.000  -0.000   0.000  -0.000
   18       -0.000  -0.000   0.000  -0.000
   19       -0.000   0.000   0.000   0.000
   20       -0.000  -0.000   0.000  -0.000
   21       -0.000  -0.000   0.000  -0.000
   22       -0.000  -0.000   0.000  -0.000
   23       -0.000   0.000   0.000  -0.000
   24       -0.000   0.000   0.000   0.000
   25       -0.000  -0.000   0.000  -0.000
   26       -0.000  -0.000   0.000  -0.000
   27       -0.000   0.000   0.000  -0.000
   28       -0.000  -0.000   0.000  -0.000
   29       -0.000  -0.000   0.000  -0.000
   30       -0.000  -0.000   0.000  -0.000
   31       -0.000   0.000   0.000   0.000
   32       -0.000   0.000   0.000   0.000
   33       -0.008  -0.000   0.000  -0.008
tot         -0.008  -0.002   0.000  -0.010